Pd N                                    
   1.00000000000000     
     8.3643661146556720    0.0000000000000000    0.0000000000000000
     4.1821830573278360    7.2437535418455532    0.0000000000000000
     0.0000000000000000    0.0000000000000000   29.1059684456587782
   Pd   N 
    45     2
Selective dynamics
Direct
  0.8888888700000001  0.2222222300000000  0.3435721300000000   F   F   F
  0.2222222100000000  0.2222222300000000  0.3435721300000000   F   F   F
  0.5555555400000000  0.2222222300000000  0.3435721300000000   F   F   F
  0.8888888600000000  0.5555556000000000  0.3435721300000000   F   F   F
  0.2222222000000000  0.5555556000000000  0.3435721300000000   F   F   F
  0.5555555300000000  0.5555556000000000  0.3435721300000000   F   F   F
  0.8888888400000000  0.8888889500000000  0.3435721300000000   F   F   F
  0.2222221800000000  0.8888889500000000  0.3435721300000000   F   F   F
  0.5555555200000000  0.8888889500000000  0.3435721300000000   F   F   F
  0.0000000000000000  0.0000000000000000  0.4217860600000000   F   F   F
  0.3333333300000000  0.0000000000000000  0.4217860600000000   F   F   F
  0.6666666600000000  0.0000000000000000  0.4217860600000000   F   F   F
  0.9999999899999999  0.3333333500000000  0.4217860600000000   F   F   F
  0.3333333100000000  0.3333333500000000  0.4217860600000000   F   F   F
  0.6666666500000000  0.3333333500000000  0.4217860600000000   F   F   F
  0.9999999700000000  0.6666667100000000  0.4217860600000000   F   F   F
  0.3333333000000000  0.6666667100000000  0.4217860600000000   F   F   F
  0.6666666400000000  0.6666667100000000  0.4217860600000000   F   F   F
  0.1100556874856645  0.1214417413933829  0.5094175020015256   T   T   T
  0.4417614568266229  0.1074396303053238  0.5012354998776883   T   T   T
  0.7899303271698956  0.0890317106972845  0.5078910759785478   T   T   T
  0.1145555089658222  0.4307487190020168  0.4991565566463629   T   T   T
  0.4450338364552496  0.4404322403192422  0.4988196358311537   T   T   T
  0.7776911525037007  0.4593765645093759  0.4987697707085820   T   T   T
  0.1115503906711132  0.7753914029295987  0.5173499994618226   T   T   T
  0.4309247609492838  0.7797135174753071  0.5001086983753477   T   T   T
  0.7703837643378806  0.7892998595040263  0.5022985447890987   T   T   T
  0.8900430502777938  0.2219881747909090  0.5806251385599026   T   T   T
  0.2364545984270683  0.2155843190117288  0.5825912416479893   T   T   T
  0.5944521922443863  0.2008620861629688  0.5808097840652504   T   T   T
  0.8890951153678843  0.5658946753285318  0.5753439762517435   T   T   T
  0.2389311859295938  0.5236692586440268  0.5964076004227231   T   T   T
  0.5527133128490473  0.5664970196649797  0.5740364235285116   T   T   T
  0.8994283449313542  0.9022763194151984  0.5906157331638621   T   T   T
  0.2170134757918117  0.8976973524946432  0.5810303494750736   T   T   T
  0.5685046513577918  0.8746725763625834  0.5818077230218806   T   T   T
 -0.0130148837271356 -0.0066234365268817  0.6807481723799135   T   T   T
  0.3334242089629631  0.9742361139558324  0.6575233386045910   T   T   T
  0.6570081870713071  0.9706101194254997  0.6632867938070716   T   T   T
  0.0016863665829523  0.3551248523864515  0.6449317122356121   T   T   T
  0.3283548763931960  0.3191915779654098  0.6792228738323255   T   T   T
  0.6492536375418190  0.3509263592926796  0.6510389932323424   T   T   T
  0.0056822955481476  0.6357210134164561  0.6925820501637134   T   T   T
  0.3194699486125049  0.6703483716188100  0.6590820563079169   T   T   T
  0.6808550871286241  0.6220329733678762  0.6491630271167436   T   T   T
 -0.1131919531801282  0.9083232751017580  0.7224938251187987   T   T   T
  1.2497680039829073  0.9248850666641301  0.7035839574409406   T   T   T
 
  0.00000000E+00  0.00000000E+00  0.00000000E+00
  0.00000000E+00  0.00000000E+00  0.00000000E+00
  0.00000000E+00  0.00000000E+00  0.00000000E+00
  0.00000000E+00  0.00000000E+00  0.00000000E+00
  0.00000000E+00  0.00000000E+00  0.00000000E+00
  0.00000000E+00  0.00000000E+00  0.00000000E+00
  0.00000000E+00  0.00000000E+00  0.00000000E+00
  0.00000000E+00  0.00000000E+00  0.00000000E+00
  0.00000000E+00  0.00000000E+00  0.00000000E+00
  0.00000000E+00  0.00000000E+00  0.00000000E+00
  0.00000000E+00  0.00000000E+00  0.00000000E+00
  0.00000000E+00  0.00000000E+00  0.00000000E+00
  0.00000000E+00  0.00000000E+00  0.00000000E+00
  0.00000000E+00  0.00000000E+00  0.00000000E+00
  0.00000000E+00  0.00000000E+00  0.00000000E+00
  0.00000000E+00  0.00000000E+00  0.00000000E+00
  0.00000000E+00  0.00000000E+00  0.00000000E+00
  0.00000000E+00  0.00000000E+00  0.00000000E+00
 -0.35229201E-02  0.85740000E-04 -0.33569320E-02
  0.20194739E-02  0.22845242E-02  0.18073183E-02
  0.23701083E-02 -0.27950693E-02 -0.21995259E-02
  0.74372126E-03  0.11148451E-02  0.45136235E-02
  0.20515028E-02 -0.97138481E-03  0.52722111E-02
 -0.12360701E-02 -0.18129266E-02 -0.17500205E-02
 -0.21448215E-02  0.54101284E-02 -0.74044220E-04
  0.55145384E-03 -0.11664501E-02 -0.15362922E-02
  0.65662139E-03 -0.80514946E-03 -0.18188807E-02
  0.15846647E-03  0.39351836E-02  0.34928758E-02
 -0.14105337E-02 -0.40551241E-02  0.26817615E-02
  0.45361894E-02 -0.35886064E-02  0.16703653E-02
 -0.17164345E-02  0.66035101E-04 -0.20057063E-03
 -0.41810213E-02 -0.80481809E-03  0.80185778E-02
  0.13189559E-02  0.27491103E-02 -0.31154774E-03
  0.52674967E-03 -0.27127397E-02  0.28222779E-02
 -0.14542317E-02 -0.62143411E-02  0.14667700E-02
  0.89469545E-05  0.53686123E-03 -0.42433882E-02
 -0.14133131E-02  0.13831176E-02  0.86706083E-02
 -0.29742791E-02 -0.36731139E-02 -0.83495207E-03
 -0.74296153E-03 -0.10451789E-02 -0.75318145E-03
 -0.85176273E-03  0.67834180E-02 -0.20030979E-02
 -0.14880607E-03 -0.60131198E-02  0.12592344E-01
  0.26936208E-02 -0.20728607E-02  0.50668613E-03
 -0.80648144E-03  0.30715903E-02 -0.99833213E-03
 -0.70620883E-03  0.22461378E-02  0.58541305E-02
  0.18789536E-02  0.94610530E-02  0.64493572E-02
  0.38139560E-01 -0.40571871E-02 -0.14600972E-01
  0.64639675E-03 -0.55870920E-01 -0.13238634E-01
 
           1
  0.500000000000000     
  0.10000000E+01  0.00000000E+00  0.00000000E+00  0.00000000E+00
  0.88888887E+00  0.22222223E+00  0.34357213E+00
  0.22222221E+00  0.22222223E+00  0.34357213E+00
  0.55555554E+00  0.22222223E+00  0.34357213E+00
  0.88888886E+00  0.55555560E+00  0.34357213E+00
  0.22222220E+00  0.55555560E+00  0.34357213E+00
  0.55555553E+00  0.55555560E+00  0.34357213E+00
  0.88888884E+00  0.88888895E+00  0.34357213E+00
  0.22222218E+00  0.88888895E+00  0.34357213E+00
  0.55555552E+00  0.88888895E+00  0.34357213E+00
  0.00000000E+00  0.00000000E+00  0.42178606E+00
  0.33333333E+00  0.00000000E+00  0.42178606E+00
  0.66666666E+00  0.00000000E+00  0.42178606E+00
  0.99999999E+00  0.33333335E+00  0.42178606E+00
  0.33333331E+00  0.33333335E+00  0.42178606E+00
  0.66666665E+00  0.33333335E+00  0.42178606E+00
  0.99999997E+00  0.66666671E+00  0.42178606E+00
  0.33333330E+00  0.66666671E+00  0.42178606E+00
  0.66666664E+00  0.66666671E+00  0.42178606E+00
  0.10984214E+00  0.12144766E+00  0.50935983E+00
  0.44180333E+00  0.10759732E+00  0.50126655E+00
  0.79016847E+00  0.88838781E-01  0.50785329E+00
  0.11456149E+00  0.43082567E+00  0.49923409E+00
  0.44518999E+00  0.44036519E+00  0.49891021E+00
  0.77767983E+00  0.45925143E+00  0.49873971E+00
  0.11123546E+00  0.77576484E+00  0.51734873E+00
  0.43099798E+00  0.77963300E+00  0.50008231E+00
  0.77045080E+00  0.78924428E+00  0.50226730E+00
  0.88991671E+00  0.22225980E+00  0.58068514E+00
  0.23651023E+00  0.21530441E+00  0.58263731E+00
  0.59484721E+00  0.20061438E+00  0.58083848E+00
  0.88899023E+00  0.56589923E+00  0.57534053E+00
  0.23870903E+00  0.52361371E+00  0.59654535E+00
  0.55269728E+00  0.56668678E+00  0.57403107E+00
  0.89955346E+00  0.90208907E+00  0.59066422E+00
  0.21714102E+00  0.89726841E+00  0.58105555E+00
  0.56848666E+00  0.87470963E+00  0.58173483E+00
  0.98685290E+00  0.99347203E+00  0.68089712E+00
  0.33337318E+00  0.97398258E+00  0.65750900E+00
  0.65699985E+00  0.97053798E+00  0.66327386E+00
  0.14013378E-02  0.35559308E+00  0.64489730E+00
  0.32855351E+00  0.31877652E+00  0.67943919E+00
  0.64948619E+00  0.35078328E+00  0.65104770E+00
  0.55280779E-02  0.63593303E+00  0.69256490E+00
  0.31935021E+00  0.67050341E+00  0.65918262E+00
  0.68064088E+00  0.62268602E+00  0.64927382E+00
  0.88922795E+00  0.90804323E+00  0.72224300E+00
  0.25173489E+00  0.92102858E+00  0.70335654E+00
  0.00000000E+00  0.00000000E+00  0.00000000E+00
  0.00000000E+00  0.00000000E+00  0.00000000E+00
  0.00000000E+00  0.00000000E+00  0.00000000E+00
  0.00000000E+00  0.00000000E+00  0.00000000E+00
  0.00000000E+00  0.00000000E+00  0.00000000E+00
  0.00000000E+00  0.00000000E+00  0.00000000E+00
  0.00000000E+00  0.00000000E+00  0.00000000E+00
  0.00000000E+00  0.00000000E+00  0.00000000E+00
  0.00000000E+00  0.00000000E+00  0.00000000E+00
  0.00000000E+00  0.00000000E+00  0.00000000E+00
  0.00000000E+00  0.00000000E+00  0.00000000E+00
  0.00000000E+00  0.00000000E+00  0.00000000E+00
  0.00000000E+00  0.00000000E+00  0.00000000E+00
  0.00000000E+00  0.00000000E+00  0.00000000E+00
  0.00000000E+00  0.00000000E+00  0.00000000E+00
  0.00000000E+00  0.00000000E+00  0.00000000E+00
  0.00000000E+00  0.00000000E+00  0.00000000E+00
  0.00000000E+00  0.00000000E+00  0.00000000E+00
  0.00000000E+00  0.00000000E+00  0.00000000E+00
  0.00000000E+00  0.00000000E+00  0.00000000E+00
  0.00000000E+00  0.00000000E+00  0.00000000E+00
  0.00000000E+00  0.00000000E+00  0.00000000E+00
  0.00000000E+00  0.00000000E+00  0.00000000E+00
  0.00000000E+00  0.00000000E+00  0.00000000E+00
  0.00000000E+00  0.00000000E+00  0.00000000E+00
  0.00000000E+00  0.00000000E+00  0.00000000E+00
  0.00000000E+00  0.00000000E+00  0.00000000E+00
  0.00000000E+00  0.00000000E+00  0.00000000E+00
  0.00000000E+00  0.00000000E+00  0.00000000E+00
  0.00000000E+00  0.00000000E+00  0.00000000E+00
  0.00000000E+00  0.00000000E+00  0.00000000E+00
  0.00000000E+00  0.00000000E+00  0.00000000E+00
  0.00000000E+00  0.00000000E+00  0.00000000E+00
  0.00000000E+00  0.00000000E+00  0.00000000E+00
  0.00000000E+00  0.00000000E+00  0.00000000E+00
  0.00000000E+00  0.00000000E+00  0.00000000E+00
  0.00000000E+00  0.00000000E+00  0.00000000E+00
  0.00000000E+00  0.00000000E+00  0.00000000E+00
  0.00000000E+00  0.00000000E+00  0.00000000E+00
  0.00000000E+00  0.00000000E+00  0.00000000E+00
  0.00000000E+00  0.00000000E+00  0.00000000E+00
  0.00000000E+00  0.00000000E+00  0.00000000E+00
  0.00000000E+00  0.00000000E+00  0.00000000E+00
  0.00000000E+00  0.00000000E+00  0.00000000E+00
  0.00000000E+00  0.00000000E+00  0.00000000E+00
  0.00000000E+00  0.00000000E+00  0.00000000E+00
  0.00000000E+00  0.00000000E+00  0.00000000E+00
  0.00000000E+00  0.00000000E+00  0.00000000E+00
  0.00000000E+00  0.00000000E+00  0.00000000E+00
  0.00000000E+00  0.00000000E+00  0.00000000E+00
  0.00000000E+00  0.00000000E+00  0.00000000E+00
  0.00000000E+00  0.00000000E+00  0.00000000E+00
  0.00000000E+00  0.00000000E+00  0.00000000E+00
  0.00000000E+00  0.00000000E+00  0.00000000E+00
  0.00000000E+00  0.00000000E+00  0.00000000E+00
  0.00000000E+00  0.00000000E+00  0.00000000E+00
  0.00000000E+00  0.00000000E+00  0.00000000E+00
  0.00000000E+00  0.00000000E+00  0.00000000E+00
  0.00000000E+00  0.00000000E+00  0.00000000E+00
  0.00000000E+00  0.00000000E+00  0.00000000E+00
  0.00000000E+00  0.00000000E+00  0.00000000E+00
  0.00000000E+00  0.00000000E+00  0.00000000E+00
  0.00000000E+00  0.00000000E+00  0.00000000E+00
  0.00000000E+00  0.00000000E+00  0.00000000E+00
  0.00000000E+00  0.00000000E+00  0.00000000E+00
  0.00000000E+00  0.00000000E+00  0.00000000E+00
  0.00000000E+00  0.00000000E+00  0.00000000E+00
  0.00000000E+00  0.00000000E+00  0.00000000E+00
  0.00000000E+00  0.00000000E+00  0.00000000E+00
  0.00000000E+00  0.00000000E+00  0.00000000E+00
  0.00000000E+00  0.00000000E+00  0.00000000E+00
  0.00000000E+00  0.00000000E+00  0.00000000E+00
  0.00000000E+00  0.00000000E+00  0.00000000E+00
  0.00000000E+00  0.00000000E+00  0.00000000E+00
  0.00000000E+00  0.00000000E+00  0.00000000E+00
  0.00000000E+00  0.00000000E+00  0.00000000E+00
  0.00000000E+00  0.00000000E+00  0.00000000E+00
  0.00000000E+00  0.00000000E+00  0.00000000E+00
  0.00000000E+00  0.00000000E+00  0.00000000E+00
  0.00000000E+00  0.00000000E+00  0.00000000E+00
  0.00000000E+00  0.00000000E+00  0.00000000E+00
  0.00000000E+00  0.00000000E+00  0.00000000E+00
  0.00000000E+00  0.00000000E+00  0.00000000E+00
  0.00000000E+00  0.00000000E+00  0.00000000E+00
  0.00000000E+00  0.00000000E+00  0.00000000E+00
  0.00000000E+00  0.00000000E+00  0.00000000E+00
  0.00000000E+00  0.00000000E+00  0.00000000E+00
  0.00000000E+00  0.00000000E+00  0.00000000E+00
  0.00000000E+00  0.00000000E+00  0.00000000E+00
  0.00000000E+00  0.00000000E+00  0.00000000E+00
  0.00000000E+00  0.00000000E+00  0.00000000E+00
  0.00000000E+00  0.00000000E+00  0.00000000E+00
  0.00000000E+00  0.00000000E+00  0.00000000E+00
  0.00000000E+00  0.00000000E+00  0.00000000E+00
