Pd N                                    
   1.00000000000000     
     8.3643661146556720    0.0000000000000000    0.0000000000000000
     4.1821830573278360    7.2437535418455532    0.0000000000000000
     0.0000000000000000    0.0000000000000000   29.1059684456587782
   Pd   N 
    45     2
Selective dynamics
Direct
  0.8888888700000001  0.2222222300000000  0.3435721300000000   F   F   F
  0.2222222100000000  0.2222222300000000  0.3435721300000000   F   F   F
  0.5555555400000000  0.2222222300000000  0.3435721300000000   F   F   F
  0.8888888600000000  0.5555556000000000  0.3435721300000000   F   F   F
  0.2222222000000000  0.5555556000000000  0.3435721300000000   F   F   F
  0.5555555300000000  0.5555556000000000  0.3435721300000000   F   F   F
  0.8888888400000000  0.8888889500000000  0.3435721300000000   F   F   F
  0.2222221800000000  0.8888889500000000  0.3435721300000000   F   F   F
  0.5555555200000000  0.8888889500000000  0.3435721300000000   F   F   F
  0.0000000000000000  0.0000000000000000  0.4217860600000000   F   F   F
  0.3333333300000000  0.0000000000000000  0.4217860600000000   F   F   F
  0.6666666600000000  0.0000000000000000  0.4217860600000000   F   F   F
  0.9999999899999999  0.3333333500000000  0.4217860600000000   F   F   F
  0.3333333100000000  0.3333333500000000  0.4217860600000000   F   F   F
  0.6666666500000000  0.3333333500000000  0.4217860600000000   F   F   F
  0.9999999700000000  0.6666667100000000  0.4217860600000000   F   F   F
  0.3333333000000000  0.6666667100000000  0.4217860600000000   F   F   F
  0.6666666400000000  0.6666667100000000  0.4217860600000000   F   F   F
  0.0990069786656600  0.0966012745737176  0.5047669207751159   T   T   T
  0.4632225697484307  0.1085081218419779  0.5000580729288102   T   T   T
  0.7776798386713527  0.1064389342383270  0.5002413185269192   T   T   T
  0.0976845691421503  0.4654946506585856  0.4972897921201518   T   T   T
  0.4501537744436418  0.4403885397102744  0.4981180253521143   T   T   T
  0.7846192904946696  0.4285531074913420  0.5007183068625239   T   T   T
  0.1142447544558388  0.7868748119433385  0.5121696120149916   T   T   T
  0.4382669945135168  0.7929346396833936  0.4972266594932065   T   T   T
  0.7525409597257935  0.7843738121201914  0.5151234887297226   T   T   T
  0.8878091635410392  0.2209192602482551  0.5854246301252500   T   T   T
  0.2200660534386664  0.2270560444666283  0.5695431234465937   T   T   T
  0.5578902869490620  0.2177434081705150  0.5796320884470585   T   T   T
  0.9056854056293245  0.5427454031210434  0.5780463453391020   T   T   T
  0.2205170141412977  0.5590121679763219  0.5822435445563664   T   T   T
  0.5625536428515651  0.5537047116747765  0.5765881126146577   T   T   T
  0.8974507498243961  0.8734119437542189  0.5779486476053146   T   T   T
  0.2096889535289246  0.9009577878494602  0.5827439310215474   T   T   T
  0.5226740533658285  0.9130723003840345  0.5866684243059543   T   T   T
  1.0096714090987529  0.9738783258718383  0.6551878930968734   T   T   T
  0.3414434009336165  0.9861410809024073  0.6677692596509490   T   T   T
  0.7152149028513216  0.9501442179461057  0.6605719525607494   T   T   T
  0.9424514431088257  0.3238296113824140  0.6763455950934011   T   T   T
  0.3399256412243783  0.3233146382600795  0.6575613926202379   T   T   T
  0.6586684262199193  0.3211876001026906  0.6563668809320068   T   T   T
  1.0138132037714376  0.6199497257252897  0.6569339649464454   T   T   T
  0.3447339858181678  0.6385188794756500  0.6540359353250659   T   T   T
  0.6500020018589530  0.6838421775487500  0.6494853548807039   T   T   T
  0.9076879513347349  1.9376274390514672  0.6944751052068893   T   T   T
  0.2708297836906691 -0.1077987360523531  0.7286103529761803   T   T   T
 
  0.00000000E+00  0.00000000E+00  0.00000000E+00
  0.00000000E+00  0.00000000E+00  0.00000000E+00
  0.00000000E+00  0.00000000E+00  0.00000000E+00
  0.00000000E+00  0.00000000E+00  0.00000000E+00
  0.00000000E+00  0.00000000E+00  0.00000000E+00
  0.00000000E+00  0.00000000E+00  0.00000000E+00
  0.00000000E+00  0.00000000E+00  0.00000000E+00
  0.00000000E+00  0.00000000E+00  0.00000000E+00
  0.00000000E+00  0.00000000E+00  0.00000000E+00
  0.00000000E+00  0.00000000E+00  0.00000000E+00
  0.00000000E+00  0.00000000E+00  0.00000000E+00
  0.00000000E+00  0.00000000E+00  0.00000000E+00
  0.00000000E+00  0.00000000E+00  0.00000000E+00
  0.00000000E+00  0.00000000E+00  0.00000000E+00
  0.00000000E+00  0.00000000E+00  0.00000000E+00
  0.00000000E+00  0.00000000E+00  0.00000000E+00
  0.00000000E+00  0.00000000E+00  0.00000000E+00
  0.00000000E+00  0.00000000E+00  0.00000000E+00
  0.33933770E-02 -0.23743137E-03  0.29846639E-02
 -0.93346322E-03  0.86358874E-05  0.18050520E-02
 -0.23390828E-02  0.20246691E-02 -0.11193787E-02
  0.13361311E-02  0.28935702E-02 -0.93946137E-03
 -0.25449617E-02  0.17837862E-02  0.78885817E-03
  0.93829528E-03 -0.17832818E-02 -0.17047313E-03
 -0.52703837E-03 -0.44554689E-02  0.35219383E-02
 -0.64589878E-03 -0.12476252E-02  0.33853960E-02
  0.10021328E-02 -0.83594204E-03 -0.16966552E-02
 -0.15636337E-02  0.48987090E-03 -0.53069879E-03
 -0.34492725E-03  0.37268617E-02  0.23104795E-02
 -0.11086632E-02 -0.37507092E-02  0.29967016E-02
 -0.16231082E-02 -0.21062572E-02  0.12233208E-02
  0.18819027E-02  0.87019647E-03  0.17365881E-02
  0.28865955E-02 -0.44530288E-02  0.81908474E-03
  0.25047672E-02 -0.10092506E-02  0.91495083E-03
 -0.51151080E-02 -0.15131385E-02  0.50228022E-02
  0.95649446E-03  0.54572134E-02  0.65431337E-02
 -0.36745634E-02  0.42814471E-02 -0.40932143E-02
  0.16077523E-03  0.27593512E-02  0.10018228E-01
  0.54785914E-02  0.16472238E-03  0.51746980E-02
 -0.76574156E-02  0.28657354E-02 -0.12088319E-02
  0.12803706E-02 -0.63536765E-02 -0.14515696E-02
 -0.70109016E-03 -0.66746304E-03 -0.52497530E-03
  0.29169574E-02 -0.35074238E-02  0.21975758E-03
  0.49738122E-02  0.39856548E-02 -0.44895260E-03
 -0.65880110E-02 -0.22251638E-02  0.44993003E-02
 -0.23803651E-02  0.35553015E-01 -0.21540211E-01
  0.12204165E-01 -0.12471853E-01  0.12323016E-01
 
           1
  0.500000000000000     
  0.10000000E+01  0.00000000E+00  0.00000000E+00  0.00000000E+00
  0.88888887E+00  0.22222223E+00  0.34357213E+00
  0.22222221E+00  0.22222223E+00  0.34357213E+00
  0.55555554E+00  0.22222223E+00  0.34357213E+00
  0.88888886E+00  0.55555560E+00  0.34357213E+00
  0.22222220E+00  0.55555560E+00  0.34357213E+00
  0.55555553E+00  0.55555560E+00  0.34357213E+00
  0.88888884E+00  0.88888895E+00  0.34357213E+00
  0.22222218E+00  0.88888895E+00  0.34357213E+00
  0.55555552E+00  0.88888895E+00  0.34357213E+00
  0.00000000E+00  0.00000000E+00  0.42178606E+00
  0.33333333E+00  0.00000000E+00  0.42178606E+00
  0.66666666E+00  0.00000000E+00  0.42178606E+00
  0.99999999E+00  0.33333335E+00  0.42178606E+00
  0.33333331E+00  0.33333335E+00  0.42178606E+00
  0.66666665E+00  0.33333335E+00  0.42178606E+00
  0.99999997E+00  0.66666671E+00  0.42178606E+00
  0.33333330E+00  0.66666671E+00  0.42178606E+00
  0.66666664E+00  0.66666671E+00  0.42178606E+00
  0.99218020E-01  0.96584886E-01  0.50481819E+00
  0.46316647E+00  0.10850872E+00  0.50008908E+00
  0.77747014E+00  0.10657869E+00  0.50022209E+00
  0.97664575E-01  0.46569438E+00  0.49727365E+00
  0.44994008E+00  0.44051167E+00  0.49813158E+00
  0.78473692E+00  0.42843002E+00  0.50071538E+00
  0.11436702E+00  0.78656727E+00  0.51223011E+00
  0.43827144E+00  0.79284852E+00  0.49728482E+00
  0.75262972E+00  0.78431611E+00  0.51509434E+00
  0.88769879E+00  0.22095307E+00  0.58541551E+00
  0.21991681E+00  0.22731329E+00  0.56958281E+00
  0.55795346E+00  0.21748452E+00  0.57968357E+00
  0.90566107E+00  0.54260002E+00  0.57806736E+00
  0.22059948E+00  0.55907223E+00  0.58227338E+00
  0.56287988E+00  0.55339734E+00  0.57660218E+00
  0.89763531E+00  0.87334228E+00  0.57796437E+00
  0.20943541E+00  0.90085334E+00  0.58283022E+00
  0.52254289E+00  0.91344898E+00  0.58678083E+00
  0.93039899E-02  0.97417385E+00  0.65511758E+00
  0.34135778E+00  0.98633155E+00  0.66794136E+00
  0.71553671E+00  0.95015559E+00  0.66066085E+00
  0.94189480E+00  0.32402742E+00  0.67632483E+00
  0.34022146E+00  0.32287608E+00  0.65753646E+00
  0.65864955E+00  0.32114153E+00  0.65635786E+00
  0.14108622E-01  0.61970763E+00  0.65693774E+00
  0.34489375E+00  0.63879399E+00  0.65402822E+00
  0.64968498E+00  0.68368859E+00  0.64956265E+00
  0.90631864E+00  0.94008149E+00  0.69410507E+00
  0.27198975E+00  0.89134039E+00  0.72882205E+00
  0.00000000E+00  0.00000000E+00  0.00000000E+00
  0.00000000E+00  0.00000000E+00  0.00000000E+00
  0.00000000E+00  0.00000000E+00  0.00000000E+00
  0.00000000E+00  0.00000000E+00  0.00000000E+00
  0.00000000E+00  0.00000000E+00  0.00000000E+00
  0.00000000E+00  0.00000000E+00  0.00000000E+00
  0.00000000E+00  0.00000000E+00  0.00000000E+00
  0.00000000E+00  0.00000000E+00  0.00000000E+00
  0.00000000E+00  0.00000000E+00  0.00000000E+00
  0.00000000E+00  0.00000000E+00  0.00000000E+00
  0.00000000E+00  0.00000000E+00  0.00000000E+00
  0.00000000E+00  0.00000000E+00  0.00000000E+00
  0.00000000E+00  0.00000000E+00  0.00000000E+00
  0.00000000E+00  0.00000000E+00  0.00000000E+00
  0.00000000E+00  0.00000000E+00  0.00000000E+00
  0.00000000E+00  0.00000000E+00  0.00000000E+00
  0.00000000E+00  0.00000000E+00  0.00000000E+00
  0.00000000E+00  0.00000000E+00  0.00000000E+00
  0.00000000E+00  0.00000000E+00  0.00000000E+00
  0.00000000E+00  0.00000000E+00  0.00000000E+00
  0.00000000E+00  0.00000000E+00  0.00000000E+00
  0.00000000E+00  0.00000000E+00  0.00000000E+00
  0.00000000E+00  0.00000000E+00  0.00000000E+00
  0.00000000E+00  0.00000000E+00  0.00000000E+00
  0.00000000E+00  0.00000000E+00  0.00000000E+00
  0.00000000E+00  0.00000000E+00  0.00000000E+00
  0.00000000E+00  0.00000000E+00  0.00000000E+00
  0.00000000E+00  0.00000000E+00  0.00000000E+00
  0.00000000E+00  0.00000000E+00  0.00000000E+00
  0.00000000E+00  0.00000000E+00  0.00000000E+00
  0.00000000E+00  0.00000000E+00  0.00000000E+00
  0.00000000E+00  0.00000000E+00  0.00000000E+00
  0.00000000E+00  0.00000000E+00  0.00000000E+00
  0.00000000E+00  0.00000000E+00  0.00000000E+00
  0.00000000E+00  0.00000000E+00  0.00000000E+00
  0.00000000E+00  0.00000000E+00  0.00000000E+00
  0.00000000E+00  0.00000000E+00  0.00000000E+00
  0.00000000E+00  0.00000000E+00  0.00000000E+00
  0.00000000E+00  0.00000000E+00  0.00000000E+00
  0.00000000E+00  0.00000000E+00  0.00000000E+00
  0.00000000E+00  0.00000000E+00  0.00000000E+00
  0.00000000E+00  0.00000000E+00  0.00000000E+00
  0.00000000E+00  0.00000000E+00  0.00000000E+00
  0.00000000E+00  0.00000000E+00  0.00000000E+00
  0.00000000E+00  0.00000000E+00  0.00000000E+00
  0.00000000E+00  0.00000000E+00  0.00000000E+00
  0.00000000E+00  0.00000000E+00  0.00000000E+00
  0.00000000E+00  0.00000000E+00  0.00000000E+00
  0.00000000E+00  0.00000000E+00  0.00000000E+00
  0.00000000E+00  0.00000000E+00  0.00000000E+00
  0.00000000E+00  0.00000000E+00  0.00000000E+00
  0.00000000E+00  0.00000000E+00  0.00000000E+00
  0.00000000E+00  0.00000000E+00  0.00000000E+00
  0.00000000E+00  0.00000000E+00  0.00000000E+00
  0.00000000E+00  0.00000000E+00  0.00000000E+00
  0.00000000E+00  0.00000000E+00  0.00000000E+00
  0.00000000E+00  0.00000000E+00  0.00000000E+00
  0.00000000E+00  0.00000000E+00  0.00000000E+00
  0.00000000E+00  0.00000000E+00  0.00000000E+00
  0.00000000E+00  0.00000000E+00  0.00000000E+00
  0.00000000E+00  0.00000000E+00  0.00000000E+00
  0.00000000E+00  0.00000000E+00  0.00000000E+00
  0.00000000E+00  0.00000000E+00  0.00000000E+00
  0.00000000E+00  0.00000000E+00  0.00000000E+00
  0.00000000E+00  0.00000000E+00  0.00000000E+00
  0.00000000E+00  0.00000000E+00  0.00000000E+00
  0.00000000E+00  0.00000000E+00  0.00000000E+00
  0.00000000E+00  0.00000000E+00  0.00000000E+00
  0.00000000E+00  0.00000000E+00  0.00000000E+00
  0.00000000E+00  0.00000000E+00  0.00000000E+00
  0.00000000E+00  0.00000000E+00  0.00000000E+00
  0.00000000E+00  0.00000000E+00  0.00000000E+00
  0.00000000E+00  0.00000000E+00  0.00000000E+00
  0.00000000E+00  0.00000000E+00  0.00000000E+00
  0.00000000E+00  0.00000000E+00  0.00000000E+00
  0.00000000E+00  0.00000000E+00  0.00000000E+00
  0.00000000E+00  0.00000000E+00  0.00000000E+00
  0.00000000E+00  0.00000000E+00  0.00000000E+00
  0.00000000E+00  0.00000000E+00  0.00000000E+00
  0.00000000E+00  0.00000000E+00  0.00000000E+00
  0.00000000E+00  0.00000000E+00  0.00000000E+00
  0.00000000E+00  0.00000000E+00  0.00000000E+00
  0.00000000E+00  0.00000000E+00  0.00000000E+00
  0.00000000E+00  0.00000000E+00  0.00000000E+00
  0.00000000E+00  0.00000000E+00  0.00000000E+00
  0.00000000E+00  0.00000000E+00  0.00000000E+00
  0.00000000E+00  0.00000000E+00  0.00000000E+00
  0.00000000E+00  0.00000000E+00  0.00000000E+00
  0.00000000E+00  0.00000000E+00  0.00000000E+00
  0.00000000E+00  0.00000000E+00  0.00000000E+00
  0.00000000E+00  0.00000000E+00  0.00000000E+00
  0.00000000E+00  0.00000000E+00  0.00000000E+00
  0.00000000E+00  0.00000000E+00  0.00000000E+00
  0.00000000E+00  0.00000000E+00  0.00000000E+00
