Pd N                                    
   1.00000000000000     
     8.3643661146556720    0.0000000000000000    0.0000000000000000
     4.1821830573278360    7.2437535418455532    0.0000000000000000
     0.0000000000000000    0.0000000000000000   29.1059684456587782
   Pd   N 
    45     2
Selective dynamics
Direct
  0.8888888700000001  0.2222222300000000  0.3435721300000000   F   F   F
  0.2222222100000000  0.2222222300000000  0.3435721300000000   F   F   F
  0.5555555400000000  0.2222222300000000  0.3435721300000000   F   F   F
  0.8888888600000000  0.5555556000000000  0.3435721300000000   F   F   F
  0.2222222000000000  0.5555556000000000  0.3435721300000000   F   F   F
  0.5555555300000000  0.5555556000000000  0.3435721300000000   F   F   F
  0.8888888400000000  0.8888889500000000  0.3435721300000000   F   F   F
  0.2222221800000000  0.8888889500000000  0.3435721300000000   F   F   F
  0.5555555200000000  0.8888889500000000  0.3435721300000000   F   F   F
  0.0000000000000000  0.0000000000000000  0.4217860600000000   F   F   F
  0.3333333300000000  0.0000000000000000  0.4217860600000000   F   F   F
  0.6666666600000000  0.0000000000000000  0.4217860600000000   F   F   F
  0.9999999899999999  0.3333333500000000  0.4217860600000000   F   F   F
  0.3333333100000000  0.3333333500000000  0.4217860600000000   F   F   F
  0.6666666500000000  0.3333333500000000  0.4217860600000000   F   F   F
  0.9999999700000000  0.6666667100000000  0.4217860600000000   F   F   F
  0.3333333000000000  0.6666667100000000  0.4217860600000000   F   F   F
  0.6666666400000000  0.6666667100000000  0.4217860600000000   F   F   F
  0.1211787760021032  0.1140215932757163  0.4911413372756764   T   T   T
  0.4471002613287867  0.1040682097351756  0.4949036575241340   T   T   T
  0.7956068475119110  0.0794229566925665  0.5122838445780163   T   T   T
  0.1097424402766325  0.4444024167356689  0.4993050038561545   T   T   T
  0.4476184909192062  0.4540893646029260  0.5016858964504656   T   T   T
  0.7781363315556092  0.4357991762018911  0.5012598238452394   T   T   T
  0.1013907000146128  0.7867504408477521  0.5045974516814742   T   T   T
  0.4554943331891171  0.7728229463465642  0.5017661323187438   T   T   T
  0.7820496218436751  0.7721600127300586  0.5011566168485767   T   T   T
  0.8909968622886462  0.2186523164578086  0.5816612195178995   T   T   T
  0.2173162621563284  0.2386989366886280  0.5688015639014943   T   T   T
  0.5518988041494908  0.2286962920688183  0.5793776824206568   T   T   T
  0.8897971999266934  0.5509729115530445  0.5776260167013130   T   T   T
  0.2386072401416383  0.5560951230696309  0.5738831840042514   T   T   T
  0.5671910614900086  0.5613853640383708  0.5832931485919594   T   T   T
  0.9072651994079928  0.8579065981869045  0.5966223124520738   T   T   T
  0.2453470585917230  0.8811567702348092  0.5772407468175850   T   T   T
  0.5551082818132980  0.8933428681838143  0.5844621440292685   T   T   T
  0.0605048243379692 -0.0665224672772025  0.6590578107138640   T   T   T
  0.2982301572293607  0.0501817473447014  0.6523523371950298   T   T   T
  0.6004632568482147 -0.0011178473117313  0.6774670166166271   T   T   T
 -0.0555782409922232  0.3623800469723910  0.6500542693980992   T   T   T
  0.3302810546539995  0.3536316981710771  0.6609324911903388   T   T   T
  0.6596074907162109  0.3517811538451421  0.6570453486057284   T   T   T
  0.9916617236022160  0.6315668727221573  0.6765616032766835   T   T   T
  0.3587051867111374  0.6249221589604287  0.6965130769881253   T   T   T
  0.6365753905255270  0.6661105027186521  0.7024934108173264   T   T   T
  0.7786920096671365  0.8014817906856914  0.7400474929992436   T   T   T
  0.5763432858740172  0.2892518968518002  0.6984360162897847   T   T   T
 
  0.00000000E+00  0.00000000E+00  0.00000000E+00
  0.00000000E+00  0.00000000E+00  0.00000000E+00
  0.00000000E+00  0.00000000E+00  0.00000000E+00
  0.00000000E+00  0.00000000E+00  0.00000000E+00
  0.00000000E+00  0.00000000E+00  0.00000000E+00
  0.00000000E+00  0.00000000E+00  0.00000000E+00
  0.00000000E+00  0.00000000E+00  0.00000000E+00
  0.00000000E+00  0.00000000E+00  0.00000000E+00
  0.00000000E+00  0.00000000E+00  0.00000000E+00
  0.00000000E+00  0.00000000E+00  0.00000000E+00
  0.00000000E+00  0.00000000E+00  0.00000000E+00
  0.00000000E+00  0.00000000E+00  0.00000000E+00
  0.00000000E+00  0.00000000E+00  0.00000000E+00
  0.00000000E+00  0.00000000E+00  0.00000000E+00
  0.00000000E+00  0.00000000E+00  0.00000000E+00
  0.00000000E+00  0.00000000E+00  0.00000000E+00
  0.00000000E+00  0.00000000E+00  0.00000000E+00
  0.00000000E+00  0.00000000E+00  0.00000000E+00
  0.78388885E-03  0.51732503E-03  0.15671372E-02
  0.19829996E-02 -0.12824018E-03 -0.20095381E-02
  0.45455249E-03  0.23523724E-02 -0.45461757E-02
 -0.19028610E-02  0.18985375E-02 -0.12128236E-02
  0.12295648E-02 -0.79324906E-03 -0.15933299E-02
  0.22027488E-03 -0.18739888E-02  0.43700039E-03
 -0.10562291E-02 -0.12530705E-04  0.16761889E-02
  0.20911882E-02 -0.37793341E-02  0.73367328E-03
 -0.12027892E-02 -0.15857845E-02  0.19090905E-02
 -0.46224130E-02 -0.42706765E-03  0.50193688E-02
 -0.40722093E-02  0.25121384E-02 -0.11207359E-02
  0.37316650E-02 -0.27915781E-02  0.60148821E-02
  0.78723719E-03 -0.17078596E-02  0.32308297E-02
  0.26148752E-02  0.95389479E-03  0.30502321E-02
  0.26916262E-02 -0.34470243E-03  0.12415508E-02
 -0.18894218E-02  0.58160869E-03  0.47201913E-02
  0.77284007E-03  0.21863116E-02 -0.57667217E-03
 -0.31604240E-02 -0.11556893E-03  0.16128806E-03
  0.12745977E-02  0.15157186E-02  0.18072307E-02
 -0.13335381E-02  0.18769882E-02  0.43738608E-02
 -0.24457252E-02  0.41092139E-02  0.49791022E-02
 -0.16841337E-02 -0.38847512E-02 -0.24235118E-02
 -0.21074855E-02 -0.13753924E-02  0.12382908E-02
  0.32009971E-02  0.22801845E-02  0.23576941E-02
  0.28293726E-02 -0.11928702E-01  0.11935068E-01
 -0.10385181E-02  0.19324660E-02  0.76195987E-02
  0.48455422E-02  0.14242675E-03  0.58693528E-02
 -0.33731652E-01  0.65736414E-02  0.11239240E-01
  0.21973618E-02 -0.29567912E-01  0.43715858E-02
 
           1
  0.500000000000000     
  0.10000000E+01  0.00000000E+00  0.00000000E+00  0.00000000E+00
  0.88888887E+00  0.22222223E+00  0.34357213E+00
  0.22222221E+00  0.22222223E+00  0.34357213E+00
  0.55555554E+00  0.22222223E+00  0.34357213E+00
  0.88888886E+00  0.55555560E+00  0.34357213E+00
  0.22222220E+00  0.55555560E+00  0.34357213E+00
  0.55555553E+00  0.55555560E+00  0.34357213E+00
  0.88888884E+00  0.88888895E+00  0.34357213E+00
  0.22222218E+00  0.88888895E+00  0.34357213E+00
  0.55555552E+00  0.88888895E+00  0.34357213E+00
  0.00000000E+00  0.00000000E+00  0.42178606E+00
  0.33333333E+00  0.00000000E+00  0.42178606E+00
  0.66666666E+00  0.00000000E+00  0.42178606E+00
  0.99999999E+00  0.33333335E+00  0.42178606E+00
  0.33333331E+00  0.33333335E+00  0.42178606E+00
  0.66666665E+00  0.33333335E+00  0.42178606E+00
  0.99999997E+00  0.66666671E+00  0.42178606E+00
  0.33333330E+00  0.66666671E+00  0.42178606E+00
  0.66666664E+00  0.66666671E+00  0.42178606E+00
  0.12120778E+00  0.11405730E+00  0.49116826E+00
  0.44722323E+00  0.10405936E+00  0.49486914E+00
  0.79555283E+00  0.79585329E-01  0.51220575E+00
  0.10956317E+00  0.44453346E+00  0.49928417E+00
  0.44771937E+00  0.45403461E+00  0.50165853E+00
  0.77821418E+00  0.43566982E+00  0.50126733E+00
  0.10132799E+00  0.78674958E+00  0.50462625E+00
  0.45574977E+00  0.77256208E+00  0.50177874E+00
  0.78203245E+00  0.77205055E+00  0.50118941E+00
  0.89073529E+00  0.21862284E+00  0.58174745E+00
  0.21698614E+00  0.23887234E+00  0.56878231E+00
  0.55221822E+00  0.22850360E+00  0.57948101E+00
  0.88990320E+00  0.55085503E+00  0.57768152E+00
  0.23873063E+00  0.55616097E+00  0.57393558E+00
  0.56736386E+00  0.56136157E+00  0.58331448E+00
  0.90713218E+00  0.85794674E+00  0.59670340E+00
  0.24531780E+00  0.88130768E+00  0.57723084E+00
  0.55492335E+00  0.89333489E+00  0.58446491E+00
  0.60528705E-01  0.93358216E+00  0.65908886E+00
  0.29808566E+00  0.50311306E-01  0.65242747E+00
  0.60017524E+00  0.99916579E+00  0.67755255E+00
  0.94445516E+00  0.36211190E+00  0.65001264E+00
  0.33020254E+00  0.35353676E+00  0.66095376E+00
  0.65972014E+00  0.35193854E+00  0.65708585E+00
  0.99224255E+00  0.63074349E+00  0.67676663E+00
  0.35857641E+00  0.62505555E+00  0.69664397E+00
  0.63686013E+00  0.66612033E+00  0.70259424E+00
  0.77644875E+00  0.80193554E+00  0.74024057E+00
  0.57749510E+00  0.28721097E+00  0.69851111E+00
  0.00000000E+00  0.00000000E+00  0.00000000E+00
  0.00000000E+00  0.00000000E+00  0.00000000E+00
  0.00000000E+00  0.00000000E+00  0.00000000E+00
  0.00000000E+00  0.00000000E+00  0.00000000E+00
  0.00000000E+00  0.00000000E+00  0.00000000E+00
  0.00000000E+00  0.00000000E+00  0.00000000E+00
  0.00000000E+00  0.00000000E+00  0.00000000E+00
  0.00000000E+00  0.00000000E+00  0.00000000E+00
  0.00000000E+00  0.00000000E+00  0.00000000E+00
  0.00000000E+00  0.00000000E+00  0.00000000E+00
  0.00000000E+00  0.00000000E+00  0.00000000E+00
  0.00000000E+00  0.00000000E+00  0.00000000E+00
  0.00000000E+00  0.00000000E+00  0.00000000E+00
  0.00000000E+00  0.00000000E+00  0.00000000E+00
  0.00000000E+00  0.00000000E+00  0.00000000E+00
  0.00000000E+00  0.00000000E+00  0.00000000E+00
  0.00000000E+00  0.00000000E+00  0.00000000E+00
  0.00000000E+00  0.00000000E+00  0.00000000E+00
  0.00000000E+00  0.00000000E+00  0.00000000E+00
  0.00000000E+00  0.00000000E+00  0.00000000E+00
  0.00000000E+00  0.00000000E+00  0.00000000E+00
  0.00000000E+00  0.00000000E+00  0.00000000E+00
  0.00000000E+00  0.00000000E+00  0.00000000E+00
  0.00000000E+00  0.00000000E+00  0.00000000E+00
  0.00000000E+00  0.00000000E+00  0.00000000E+00
  0.00000000E+00  0.00000000E+00  0.00000000E+00
  0.00000000E+00  0.00000000E+00  0.00000000E+00
  0.00000000E+00  0.00000000E+00  0.00000000E+00
  0.00000000E+00  0.00000000E+00  0.00000000E+00
  0.00000000E+00  0.00000000E+00  0.00000000E+00
  0.00000000E+00  0.00000000E+00  0.00000000E+00
  0.00000000E+00  0.00000000E+00  0.00000000E+00
  0.00000000E+00  0.00000000E+00  0.00000000E+00
  0.00000000E+00  0.00000000E+00  0.00000000E+00
  0.00000000E+00  0.00000000E+00  0.00000000E+00
  0.00000000E+00  0.00000000E+00  0.00000000E+00
  0.00000000E+00  0.00000000E+00  0.00000000E+00
  0.00000000E+00  0.00000000E+00  0.00000000E+00
  0.00000000E+00  0.00000000E+00  0.00000000E+00
  0.00000000E+00  0.00000000E+00  0.00000000E+00
  0.00000000E+00  0.00000000E+00  0.00000000E+00
  0.00000000E+00  0.00000000E+00  0.00000000E+00
  0.00000000E+00  0.00000000E+00  0.00000000E+00
  0.00000000E+00  0.00000000E+00  0.00000000E+00
  0.00000000E+00  0.00000000E+00  0.00000000E+00
  0.00000000E+00  0.00000000E+00  0.00000000E+00
  0.00000000E+00  0.00000000E+00  0.00000000E+00
  0.00000000E+00  0.00000000E+00  0.00000000E+00
  0.00000000E+00  0.00000000E+00  0.00000000E+00
  0.00000000E+00  0.00000000E+00  0.00000000E+00
  0.00000000E+00  0.00000000E+00  0.00000000E+00
  0.00000000E+00  0.00000000E+00  0.00000000E+00
  0.00000000E+00  0.00000000E+00  0.00000000E+00
  0.00000000E+00  0.00000000E+00  0.00000000E+00
  0.00000000E+00  0.00000000E+00  0.00000000E+00
  0.00000000E+00  0.00000000E+00  0.00000000E+00
  0.00000000E+00  0.00000000E+00  0.00000000E+00
  0.00000000E+00  0.00000000E+00  0.00000000E+00
  0.00000000E+00  0.00000000E+00  0.00000000E+00
  0.00000000E+00  0.00000000E+00  0.00000000E+00
  0.00000000E+00  0.00000000E+00  0.00000000E+00
  0.00000000E+00  0.00000000E+00  0.00000000E+00
  0.00000000E+00  0.00000000E+00  0.00000000E+00
  0.00000000E+00  0.00000000E+00  0.00000000E+00
  0.00000000E+00  0.00000000E+00  0.00000000E+00
  0.00000000E+00  0.00000000E+00  0.00000000E+00
  0.00000000E+00  0.00000000E+00  0.00000000E+00
  0.00000000E+00  0.00000000E+00  0.00000000E+00
  0.00000000E+00  0.00000000E+00  0.00000000E+00
  0.00000000E+00  0.00000000E+00  0.00000000E+00
  0.00000000E+00  0.00000000E+00  0.00000000E+00
  0.00000000E+00  0.00000000E+00  0.00000000E+00
  0.00000000E+00  0.00000000E+00  0.00000000E+00
  0.00000000E+00  0.00000000E+00  0.00000000E+00
  0.00000000E+00  0.00000000E+00  0.00000000E+00
  0.00000000E+00  0.00000000E+00  0.00000000E+00
  0.00000000E+00  0.00000000E+00  0.00000000E+00
  0.00000000E+00  0.00000000E+00  0.00000000E+00
  0.00000000E+00  0.00000000E+00  0.00000000E+00
  0.00000000E+00  0.00000000E+00  0.00000000E+00
  0.00000000E+00  0.00000000E+00  0.00000000E+00
  0.00000000E+00  0.00000000E+00  0.00000000E+00
  0.00000000E+00  0.00000000E+00  0.00000000E+00
  0.00000000E+00  0.00000000E+00  0.00000000E+00
  0.00000000E+00  0.00000000E+00  0.00000000E+00
  0.00000000E+00  0.00000000E+00  0.00000000E+00
  0.00000000E+00  0.00000000E+00  0.00000000E+00
  0.00000000E+00  0.00000000E+00  0.00000000E+00
  0.00000000E+00  0.00000000E+00  0.00000000E+00
  0.00000000E+00  0.00000000E+00  0.00000000E+00
  0.00000000E+00  0.00000000E+00  0.00000000E+00
  0.00000000E+00  0.00000000E+00  0.00000000E+00
  0.00000000E+00  0.00000000E+00  0.00000000E+00
  0.00000000E+00  0.00000000E+00  0.00000000E+00
