Pd N                                    
   1.00000000000000     
     8.3643661146556720    0.0000000000000000    0.0000000000000000
     4.1821830573278360    7.2437535418455532    0.0000000000000000
     0.0000000000000000    0.0000000000000000   29.1059684456587782
   Pd   N 
    45     2
Selective dynamics
Direct
  0.8888888700000001  0.2222222300000000  0.3435721300000000   F   F   F
  0.2222222100000000  0.2222222300000000  0.3435721300000000   F   F   F
  0.5555555400000000  0.2222222300000000  0.3435721300000000   F   F   F
  0.8888888600000000  0.5555556000000000  0.3435721300000000   F   F   F
  0.2222222000000000  0.5555556000000000  0.3435721300000000   F   F   F
  0.5555555300000000  0.5555556000000000  0.3435721300000000   F   F   F
  0.8888888400000000  0.8888889500000000  0.3435721300000000   F   F   F
  0.2222221800000000  0.8888889500000000  0.3435721300000000   F   F   F
  0.5555555200000000  0.8888889500000000  0.3435721300000000   F   F   F
  0.0000000000000000  0.0000000000000000  0.4217860600000000   F   F   F
  0.3333333300000000  0.0000000000000000  0.4217860600000000   F   F   F
  0.6666666600000000  0.0000000000000000  0.4217860600000000   F   F   F
  0.9999999899999999  0.3333333500000000  0.4217860600000000   F   F   F
  0.3333333100000000  0.3333333500000000  0.4217860600000000   F   F   F
  0.6666666500000000  0.3333333500000000  0.4217860600000000   F   F   F
  0.9999999700000000  0.6666667100000000  0.4217860600000000   F   F   F
  0.3333333000000000  0.6666667100000000  0.4217860600000000   F   F   F
  0.6666666400000000  0.6666667100000000  0.4217860600000000   F   F   F
  0.1128745040191799  0.1014314381745452  0.4982168120864206   T   T   T
  0.4436246138395945  0.1176727476762360  0.5013191996319443   T   T   T
  0.7683308569433001  0.1270689843488023  0.4973149099850543   T   T   T
  0.1214735137729648  0.4383865490982136  0.4962218922786614   T   T   T
  0.4533040423910662  0.4455455358900317  0.4987425509283226   T   T   T
  0.7742425301186102  0.4460967724246377  0.4973847758784671   T   T   T
  0.0942963405256967  0.7811896156113137  0.5017663733860578   T   T   T
  0.4455759188343542  0.7819113922757964  0.4995925336982051   T   T   T
  0.7823596372350773  0.7492315047966589  0.5060592962724181   T   T   T
  0.8923413498667501  0.2306959746996710  0.5703317231156116   T   T   T
  0.2010157373500655  0.2253601273482594  0.5776023573321063   T   T   T
  0.5419479839582995  0.2243736782129775  0.5808904315549926   T   T   T
  0.8910695600549707  0.5457821750642257  0.5708813989377387   T   T   T
  0.2208949997022999  0.5376404142853488  0.5810734197577242   T   T   T
  0.5710643001358781  0.5531761735483105  0.5798466833914910   T   T   T
  0.8887910189092034  0.8741661088940484  0.5827992754075766   T   T   T
  0.2294766407087273  0.8695706833141404  0.5748207580590101   T   T   T
  0.5575079154636229  0.8963934554757098  0.5814716089014320   T   T   T
 -0.0217875396325069  0.0359169955165552  0.6562462876332611   T   T   T
  0.2954374662765046  0.0184520983457527  0.6545540101021921   T   T   T
  0.6627353694623780  1.0054188253986849  0.6681640094902733   T   T   T
 -0.0273542554634814  0.3482040196023122  0.6442923131382113   T   T   T
  0.3078537750378456  0.3153846582269700  0.6611176525086415   T   T   T
  0.6394620014857233  0.3392917302986798  0.6522135511471819   T   T   T
  0.9818977466885732  0.6461732025656648  0.6526510629123422   T   T   T
  0.3097162812357123  0.6683576363175432  0.6576694671681532   T   T   T
  0.6441099993653734  0.6999256547929134  0.6621369867233751   T   T   T
  1.1382005902888912 -0.1099972875639841  0.7021322789891252   T   T   T
  1.3783398876595292 -0.2266955019006588  0.7233101761859024   T   T   T
 
  0.00000000E+00  0.00000000E+00  0.00000000E+00
  0.00000000E+00  0.00000000E+00  0.00000000E+00
  0.00000000E+00  0.00000000E+00  0.00000000E+00
  0.00000000E+00  0.00000000E+00  0.00000000E+00
  0.00000000E+00  0.00000000E+00  0.00000000E+00
  0.00000000E+00  0.00000000E+00  0.00000000E+00
  0.00000000E+00  0.00000000E+00  0.00000000E+00
  0.00000000E+00  0.00000000E+00  0.00000000E+00
  0.00000000E+00  0.00000000E+00  0.00000000E+00
  0.00000000E+00  0.00000000E+00  0.00000000E+00
  0.00000000E+00  0.00000000E+00  0.00000000E+00
  0.00000000E+00  0.00000000E+00  0.00000000E+00
  0.00000000E+00  0.00000000E+00  0.00000000E+00
  0.00000000E+00  0.00000000E+00  0.00000000E+00
  0.00000000E+00  0.00000000E+00  0.00000000E+00
  0.00000000E+00  0.00000000E+00  0.00000000E+00
  0.00000000E+00  0.00000000E+00  0.00000000E+00
  0.00000000E+00  0.00000000E+00  0.00000000E+00
 -0.15179005E-02 -0.10027851E-02  0.24356923E-03
  0.43409056E-03 -0.17455909E-02  0.23031118E-02
  0.18223251E-03  0.51555731E-03  0.98544223E-02
 -0.31272447E-03  0.30098033E-02  0.12837261E-02
  0.22904451E-02 -0.49958708E-03 -0.49109475E-04
 -0.37363552E-03 -0.11788632E-02 -0.45464304E-03
 -0.40675593E-03  0.16741408E-02 -0.32080014E-03
 -0.19770144E-02  0.10260449E-02 -0.13323218E-02
  0.94920861E-04 -0.70561401E-02  0.11935311E-01
  0.35526200E-02  0.22266875E-02  0.59153597E-02
 -0.20482537E-02 -0.17427064E-02 -0.11258251E-02
  0.39673776E-03  0.13277385E-03  0.11123691E-02
 -0.19539384E-02 -0.73246250E-02  0.10926086E-01
 -0.83858237E-03  0.37902240E-03  0.66556143E-03
 -0.15853532E-02  0.67455066E-03  0.18551320E-02
 -0.70702674E-03  0.26802340E-02 -0.58428328E-03
  0.18855742E-04  0.63939975E-03 -0.38572864E-03
 -0.10318701E-02  0.64598253E-03  0.20401134E-02
 -0.19639466E-02  0.14326396E-02  0.13448257E-02
 -0.39433968E-03 -0.44806180E-03  0.17845444E-02
 -0.25982836E-02 -0.99501628E-03  0.87701291E-03
  0.29357307E-02 -0.32810313E-02  0.10079143E-01
  0.13262417E-02  0.21196452E-02 -0.18826516E-02
 -0.23552866E-03  0.75686186E-03 -0.14907326E-03
 -0.27812613E-03 -0.48067998E-03  0.49252307E-03
 -0.14117688E-02  0.19749581E-02  0.34496914E-02
 -0.27443989E-02 -0.10150670E-03 -0.69704021E-03
  0.26647430E-01 -0.12446240E-01 -0.45859354E-01
  0.62974581E-01 -0.21087266E-01 -0.60311340E-02
 
           1
  0.500000000000000     
  0.10000000E+01  0.00000000E+00  0.00000000E+00  0.00000000E+00
  0.88888887E+00  0.22222223E+00  0.34357213E+00
  0.22222221E+00  0.22222223E+00  0.34357213E+00
  0.55555554E+00  0.22222223E+00  0.34357213E+00
  0.88888886E+00  0.55555560E+00  0.34357213E+00
  0.22222220E+00  0.55555560E+00  0.34357213E+00
  0.55555553E+00  0.55555560E+00  0.34357213E+00
  0.88888884E+00  0.88888895E+00  0.34357213E+00
  0.22222218E+00  0.88888895E+00  0.34357213E+00
  0.55555552E+00  0.88888895E+00  0.34357213E+00
  0.00000000E+00  0.00000000E+00  0.42178606E+00
  0.33333333E+00  0.00000000E+00  0.42178606E+00
  0.66666666E+00  0.00000000E+00  0.42178606E+00
  0.99999999E+00  0.33333335E+00  0.42178606E+00
  0.33333331E+00  0.33333335E+00  0.42178606E+00
  0.66666665E+00  0.33333335E+00  0.42178606E+00
  0.99999997E+00  0.66666671E+00  0.42178606E+00
  0.33333330E+00  0.66666671E+00  0.42178606E+00
  0.66666664E+00  0.66666671E+00  0.42178606E+00
  0.11281838E+00  0.10136222E+00  0.49822100E+00
  0.44371081E+00  0.11755226E+00  0.50135876E+00
  0.76832396E+00  0.12710457E+00  0.49748420E+00
  0.12135094E+00  0.43859430E+00  0.49624394E+00
  0.45345820E+00  0.44551105E+00  0.49874171E+00
  0.77426088E+00  0.44601540E+00  0.49737697E+00
  0.94214247E-01  0.78130517E+00  0.50176086E+00
  0.44542233E+00  0.78198222E+00  0.49956965E+00
  0.78260884E+00  0.74874445E+00  0.50626433E+00
  0.89247687E+00  0.23084967E+00  0.57043334E+00
  0.20095344E+00  0.22523984E+00  0.57758302E+00
  0.54196712E+00  0.22438284E+00  0.58090954E+00
  0.89120555E+00  0.54527659E+00  0.57106909E+00
  0.22083179E+00  0.53766658E+00  0.58108485E+00
  0.57094625E+00  0.55322273E+00  0.57987855E+00
  0.88865625E+00  0.87435111E+00  0.58278924E+00
  0.22945570E+00  0.86961482E+00  0.57481413E+00
  0.55742394E+00  0.89643804E+00  0.58150666E+00
  0.97804562E+00  0.36015883E-01  0.65626939E+00
  0.29542936E+00  0.18421171E-01  0.65458467E+00
  0.66261439E+00  0.53501444E-02  0.66817908E+00
  0.97293447E+00  0.34797755E+00  0.64446546E+00
  0.30785990E+00  0.31553097E+00  0.66108531E+00
  0.63942180E+00  0.33934397E+00  0.65221099E+00
  0.98189771E+00  0.64614002E+00  0.65265952E+00
  0.30956373E+00  0.66849396E+00  0.65772873E+00
  0.64394945E+00  0.69991865E+00  0.66212501E+00
  0.14022305E+00  0.88914361E+00  0.70134448E+00
  0.38283212E+00  0.77184895E+00  0.72320657E+00
  0.00000000E+00  0.00000000E+00  0.00000000E+00
  0.00000000E+00  0.00000000E+00  0.00000000E+00
  0.00000000E+00  0.00000000E+00  0.00000000E+00
  0.00000000E+00  0.00000000E+00  0.00000000E+00
  0.00000000E+00  0.00000000E+00  0.00000000E+00
  0.00000000E+00  0.00000000E+00  0.00000000E+00
  0.00000000E+00  0.00000000E+00  0.00000000E+00
  0.00000000E+00  0.00000000E+00  0.00000000E+00
  0.00000000E+00  0.00000000E+00  0.00000000E+00
  0.00000000E+00  0.00000000E+00  0.00000000E+00
  0.00000000E+00  0.00000000E+00  0.00000000E+00
  0.00000000E+00  0.00000000E+00  0.00000000E+00
  0.00000000E+00  0.00000000E+00  0.00000000E+00
  0.00000000E+00  0.00000000E+00  0.00000000E+00
  0.00000000E+00  0.00000000E+00  0.00000000E+00
  0.00000000E+00  0.00000000E+00  0.00000000E+00
  0.00000000E+00  0.00000000E+00  0.00000000E+00
  0.00000000E+00  0.00000000E+00  0.00000000E+00
  0.00000000E+00  0.00000000E+00  0.00000000E+00
  0.00000000E+00  0.00000000E+00  0.00000000E+00
  0.00000000E+00  0.00000000E+00  0.00000000E+00
  0.00000000E+00  0.00000000E+00  0.00000000E+00
  0.00000000E+00  0.00000000E+00  0.00000000E+00
  0.00000000E+00  0.00000000E+00  0.00000000E+00
  0.00000000E+00  0.00000000E+00  0.00000000E+00
  0.00000000E+00  0.00000000E+00  0.00000000E+00
  0.00000000E+00  0.00000000E+00  0.00000000E+00
  0.00000000E+00  0.00000000E+00  0.00000000E+00
  0.00000000E+00  0.00000000E+00  0.00000000E+00
  0.00000000E+00  0.00000000E+00  0.00000000E+00
  0.00000000E+00  0.00000000E+00  0.00000000E+00
  0.00000000E+00  0.00000000E+00  0.00000000E+00
  0.00000000E+00  0.00000000E+00  0.00000000E+00
  0.00000000E+00  0.00000000E+00  0.00000000E+00
  0.00000000E+00  0.00000000E+00  0.00000000E+00
  0.00000000E+00  0.00000000E+00  0.00000000E+00
  0.00000000E+00  0.00000000E+00  0.00000000E+00
  0.00000000E+00  0.00000000E+00  0.00000000E+00
  0.00000000E+00  0.00000000E+00  0.00000000E+00
  0.00000000E+00  0.00000000E+00  0.00000000E+00
  0.00000000E+00  0.00000000E+00  0.00000000E+00
  0.00000000E+00  0.00000000E+00  0.00000000E+00
  0.00000000E+00  0.00000000E+00  0.00000000E+00
  0.00000000E+00  0.00000000E+00  0.00000000E+00
  0.00000000E+00  0.00000000E+00  0.00000000E+00
  0.00000000E+00  0.00000000E+00  0.00000000E+00
  0.00000000E+00  0.00000000E+00  0.00000000E+00
  0.00000000E+00  0.00000000E+00  0.00000000E+00
  0.00000000E+00  0.00000000E+00  0.00000000E+00
  0.00000000E+00  0.00000000E+00  0.00000000E+00
  0.00000000E+00  0.00000000E+00  0.00000000E+00
  0.00000000E+00  0.00000000E+00  0.00000000E+00
  0.00000000E+00  0.00000000E+00  0.00000000E+00
  0.00000000E+00  0.00000000E+00  0.00000000E+00
  0.00000000E+00  0.00000000E+00  0.00000000E+00
  0.00000000E+00  0.00000000E+00  0.00000000E+00
  0.00000000E+00  0.00000000E+00  0.00000000E+00
  0.00000000E+00  0.00000000E+00  0.00000000E+00
  0.00000000E+00  0.00000000E+00  0.00000000E+00
  0.00000000E+00  0.00000000E+00  0.00000000E+00
  0.00000000E+00  0.00000000E+00  0.00000000E+00
  0.00000000E+00  0.00000000E+00  0.00000000E+00
  0.00000000E+00  0.00000000E+00  0.00000000E+00
  0.00000000E+00  0.00000000E+00  0.00000000E+00
  0.00000000E+00  0.00000000E+00  0.00000000E+00
  0.00000000E+00  0.00000000E+00  0.00000000E+00
  0.00000000E+00  0.00000000E+00  0.00000000E+00
  0.00000000E+00  0.00000000E+00  0.00000000E+00
  0.00000000E+00  0.00000000E+00  0.00000000E+00
  0.00000000E+00  0.00000000E+00  0.00000000E+00
  0.00000000E+00  0.00000000E+00  0.00000000E+00
  0.00000000E+00  0.00000000E+00  0.00000000E+00
  0.00000000E+00  0.00000000E+00  0.00000000E+00
  0.00000000E+00  0.00000000E+00  0.00000000E+00
  0.00000000E+00  0.00000000E+00  0.00000000E+00
  0.00000000E+00  0.00000000E+00  0.00000000E+00
  0.00000000E+00  0.00000000E+00  0.00000000E+00
  0.00000000E+00  0.00000000E+00  0.00000000E+00
  0.00000000E+00  0.00000000E+00  0.00000000E+00
  0.00000000E+00  0.00000000E+00  0.00000000E+00
  0.00000000E+00  0.00000000E+00  0.00000000E+00
  0.00000000E+00  0.00000000E+00  0.00000000E+00
  0.00000000E+00  0.00000000E+00  0.00000000E+00
  0.00000000E+00  0.00000000E+00  0.00000000E+00
  0.00000000E+00  0.00000000E+00  0.00000000E+00
  0.00000000E+00  0.00000000E+00  0.00000000E+00
  0.00000000E+00  0.00000000E+00  0.00000000E+00
  0.00000000E+00  0.00000000E+00  0.00000000E+00
  0.00000000E+00  0.00000000E+00  0.00000000E+00
  0.00000000E+00  0.00000000E+00  0.00000000E+00
  0.00000000E+00  0.00000000E+00  0.00000000E+00
  0.00000000E+00  0.00000000E+00  0.00000000E+00
  0.00000000E+00  0.00000000E+00  0.00000000E+00
  0.00000000E+00  0.00000000E+00  0.00000000E+00
