Pd N                                    
   1.00000000000000     
     8.3643661146556720    0.0000000000000000    0.0000000000000000
     4.1821830573278360    7.2437535418455532    0.0000000000000000
     0.0000000000000000    0.0000000000000000   29.1059684456587782
   Pd   N 
    45     2
Selective dynamics
Direct
  0.8888888700000001  0.2222222300000000  0.3435721300000000   F   F   F
  0.2222222100000000  0.2222222300000000  0.3435721300000000   F   F   F
  0.5555555400000000  0.2222222300000000  0.3435721300000000   F   F   F
  0.8888888600000000  0.5555556000000000  0.3435721300000000   F   F   F
  0.2222222000000000  0.5555556000000000  0.3435721300000000   F   F   F
  0.5555555300000000  0.5555556000000000  0.3435721300000000   F   F   F
  0.8888888400000000  0.8888889500000000  0.3435721300000000   F   F   F
  0.2222221800000000  0.8888889500000000  0.3435721300000000   F   F   F
  0.5555555200000000  0.8888889500000000  0.3435721300000000   F   F   F
  0.0000000000000000  0.0000000000000000  0.4217860600000000   F   F   F
  0.3333333300000000  0.0000000000000000  0.4217860600000000   F   F   F
  0.6666666600000000  0.0000000000000000  0.4217860600000000   F   F   F
  0.9999999899999999  0.3333333500000000  0.4217860600000000   F   F   F
  0.3333333100000000  0.3333333500000000  0.4217860600000000   F   F   F
  0.6666666500000000  0.3333333500000000  0.4217860600000000   F   F   F
  0.9999999700000000  0.6666667100000000  0.4217860600000000   F   F   F
  0.3333333000000000  0.6666667100000000  0.4217860600000000   F   F   F
  0.6666666400000000  0.6666667100000000  0.4217860600000000   F   F   F
  0.1127985879887643  0.1145444452897918  0.4984263983974826   T   T   T
  0.4595686771551438  0.0958558491575000  0.5005839686993451   T   T   T
  0.7766610159953505  0.1021657596662367  0.4963725219190906   T   T   T
  0.0908102129035322  0.4576261723602109  0.4988561457572412   T   T   T
  0.4415784613067741  0.4457580561448196  0.5096667488645108   T   T   T
  0.7861314011211342  0.4552741019314494  0.4964173470905550   T   T   T
  0.0785695372669740  0.7881053203260746  0.4978943805091798   T   T   T
  0.4771485096352034  0.7722883061523040  0.4986382734717342   T   T   T
  0.7873780354692830  0.7796094528005115  0.5215417568746739   T   T   T
  0.8731838167237838  0.2346475136576324  0.5671593362646625   T   T   T
  0.2175404233428892  0.2424157210967806  0.5738002735140481   T   T   T
  0.5705471984601546  0.1988763958173739  0.5812579706150680   T   T   T
  0.9050128944456310  0.5366069694643556  0.5881724798018030   T   T   T
  0.2141229319666619  0.5729039704300085  0.5829055983083231   T   T   T
  0.5653139238181858  0.5616096978585650  0.5814749928468048   T   T   T
  0.8860147918954047  0.9036629879556943  0.5848421491037554   T   T   T
  0.2281156336337079  0.8884036149273132  0.5678169467014708   T   T   T
  0.5658843330001627  0.8836373521388915  0.5869545238249755   T   T   T
  0.9971340006683131  0.9595776928923445  0.6587187603635085   T   T   T
  0.4156091413489787  0.9630550095785850  0.6638812236650606   T   T   T
  0.6671555777748702 -0.0301775443856445  0.6656962837557703   T   T   T
  1.0053380855560861  0.3838802912537291  0.6669835470091493   T   T   T
  0.3514433226132723  0.3141542667689347  0.6548477959328176   T   T   T
  0.6849722609771929  0.3258098572087844  0.6574168394328359   T   T   T
 -0.0009029854143346  0.6701099095711471  0.6660635041445290   T   T   T
  0.3594910346767624  0.6456349282713519  0.6587312545458717   T   T   T
  0.6929133732316926  0.6670208363151154  0.6580288563239789   T   T   T
  0.4551862811741546  0.3647075055442792  0.9120388836543446   T   T   T
  0.3278889303730952  0.5609930130206827  0.9204055530830152   T   T   T
 
  0.00000000E+00  0.00000000E+00  0.00000000E+00
  0.00000000E+00  0.00000000E+00  0.00000000E+00
  0.00000000E+00  0.00000000E+00  0.00000000E+00
  0.00000000E+00  0.00000000E+00  0.00000000E+00
  0.00000000E+00  0.00000000E+00  0.00000000E+00
  0.00000000E+00  0.00000000E+00  0.00000000E+00
  0.00000000E+00  0.00000000E+00  0.00000000E+00
  0.00000000E+00  0.00000000E+00  0.00000000E+00
  0.00000000E+00  0.00000000E+00  0.00000000E+00
  0.00000000E+00  0.00000000E+00  0.00000000E+00
  0.00000000E+00  0.00000000E+00  0.00000000E+00
  0.00000000E+00  0.00000000E+00  0.00000000E+00
  0.00000000E+00  0.00000000E+00  0.00000000E+00
  0.00000000E+00  0.00000000E+00  0.00000000E+00
  0.00000000E+00  0.00000000E+00  0.00000000E+00
  0.00000000E+00  0.00000000E+00  0.00000000E+00
  0.00000000E+00  0.00000000E+00  0.00000000E+00
  0.00000000E+00  0.00000000E+00  0.00000000E+00
  0.11721239E-03 -0.13143494E-02  0.16123557E-01
 -0.61822150E-03 -0.23646797E-02  0.22661325E-01
  0.12834837E-02  0.12997329E-03  0.15836038E-01
 -0.13501484E-02  0.16292526E-03  0.17390044E-01
  0.33078073E-03 -0.12690017E-02  0.15537062E-01
  0.12752340E-02  0.13069452E-02  0.18498106E-01
  0.75884610E-04  0.12795781E-02  0.16367934E-01
 -0.33398562E-03  0.21777891E-02  0.18218135E-01
 -0.17203660E-02 -0.15040929E-02  0.45873224E-01
  0.40115950E-02 -0.35842877E-03  0.81988735E-01
 -0.12882493E-02 -0.13631912E-02  0.90092839E-01
 -0.39192693E-02 -0.24847288E-02  0.87616732E-01
  0.85111941E-03  0.47665709E-02  0.68649897E-01
 -0.21127006E-02  0.72740376E-03  0.90828772E-01
  0.20995777E-02  0.26497161E-02  0.85980827E-01
 -0.35367615E-02 -0.48618401E-02  0.95772095E-01
  0.30681665E-02  0.33965844E-02  0.85215524E-01
  0.12750749E-02 -0.14291221E-02  0.73180887E-01
  0.96787618E-02 -0.16490221E-02  0.10532134E+00
 -0.86171656E-02  0.20736151E-02  0.93750900E-01
  0.33294113E-02 -0.16918480E-02  0.63986943E-01
  0.15291469E-02  0.61745598E-03  0.89087882E-01
 -0.22322463E-02 -0.19452507E-02  0.10147439E+00
  0.13646656E-02 -0.24321332E-02  0.10220523E+00
  0.44902298E-04  0.58064365E-03  0.64613074E-01
 -0.17651896E-02  0.35978671E-02  0.10377239E+00
 -0.10705350E-02  0.62400787E-04  0.88695281E-01
 -0.12300985E-01  0.25419137E-01  0.10791667E+00
 -0.34673338E-01 -0.12086689E-01  0.10705664E+00
 
           1
  0.500000000000000     
  0.10000000E+01  0.00000000E+00  0.00000000E+00  0.00000000E+00
  0.88888887E+00  0.22222223E+00  0.34357213E+00
  0.22222221E+00  0.22222223E+00  0.34357213E+00
  0.55555554E+00  0.22222223E+00  0.34357213E+00
  0.88888886E+00  0.55555560E+00  0.34357213E+00
  0.22222220E+00  0.55555560E+00  0.34357213E+00
  0.55555553E+00  0.55555560E+00  0.34357213E+00
  0.88888884E+00  0.88888895E+00  0.34357213E+00
  0.22222218E+00  0.88888895E+00  0.34357213E+00
  0.55555552E+00  0.88888895E+00  0.34357213E+00
  0.00000000E+00  0.00000000E+00  0.42178606E+00
  0.33333333E+00  0.00000000E+00  0.42178606E+00
  0.66666666E+00  0.00000000E+00  0.42178606E+00
  0.99999999E+00  0.33333335E+00  0.42178606E+00
  0.33333331E+00  0.33333335E+00  0.42178606E+00
  0.66666665E+00  0.33333335E+00  0.42178606E+00
  0.99999997E+00  0.66666671E+00  0.42178606E+00
  0.33333330E+00  0.66666671E+00  0.42178606E+00
  0.66666664E+00  0.66666671E+00  0.42178606E+00
  0.11285096E+00  0.11445372E+00  0.49870338E+00
  0.45961333E+00  0.95692627E-01  0.50097326E+00
  0.77673325E+00  0.10217473E+00  0.49664456E+00
  0.90723882E-01  0.45763742E+00  0.49915488E+00
  0.44164203E+00  0.44567046E+00  0.50993365E+00
  0.78616253E+00  0.45536431E+00  0.49673512E+00
  0.78529912E-01  0.78819364E+00  0.49817556E+00
  0.47705338E+00  0.77243863E+00  0.49895124E+00
  0.78732711E+00  0.77950563E+00  0.52232979E+00
  0.87343599E+00  0.23462277E+00  0.56856779E+00
  0.21751046E+00  0.24232163E+00  0.57534794E+00
  0.57039867E+00  0.19870489E+00  0.58276310E+00
  0.90489927E+00  0.53693598E+00  0.58935179E+00
  0.21397154E+00  0.57295418E+00  0.58446591E+00
  0.56534798E+00  0.56179259E+00  0.58295202E+00
  0.88597117E+00  0.90332740E+00  0.58648738E+00
  0.22818182E+00  0.88863806E+00  0.56928083E+00
  0.56600988E+00  0.88353871E+00  0.58821167E+00
  0.99776948E+00  0.95946387E+00  0.66052803E+00
  0.41502246E+00  0.96319814E+00  0.66549173E+00
  0.66741299E+00  0.96970568E+00  0.66679549E+00
  0.54081840E-02  0.38392291E+00  0.66851395E+00
  0.35137702E+00  0.31402000E+00  0.65659098E+00
  0.68513778E+00  0.32564198E+00  0.65917258E+00
  0.99907966E+00  0.67014999E+00  0.66717347E+00
  0.35926134E+00  0.64588327E+00  0.66051392E+00
  0.69284723E+00  0.66702514E+00  0.65955252E+00
  0.45357368E+00  0.36646206E+00  0.91389274E+00
  0.32623339E+00  0.56015873E+00  0.92224464E+00
  0.00000000E+00  0.00000000E+00  0.00000000E+00
  0.00000000E+00  0.00000000E+00  0.00000000E+00
  0.00000000E+00  0.00000000E+00  0.00000000E+00
  0.00000000E+00  0.00000000E+00  0.00000000E+00
  0.00000000E+00  0.00000000E+00  0.00000000E+00
  0.00000000E+00  0.00000000E+00  0.00000000E+00
  0.00000000E+00  0.00000000E+00  0.00000000E+00
  0.00000000E+00  0.00000000E+00  0.00000000E+00
  0.00000000E+00  0.00000000E+00  0.00000000E+00
  0.00000000E+00  0.00000000E+00  0.00000000E+00
  0.00000000E+00  0.00000000E+00  0.00000000E+00
  0.00000000E+00  0.00000000E+00  0.00000000E+00
  0.00000000E+00  0.00000000E+00  0.00000000E+00
  0.00000000E+00  0.00000000E+00  0.00000000E+00
  0.00000000E+00  0.00000000E+00  0.00000000E+00
  0.00000000E+00  0.00000000E+00  0.00000000E+00
  0.00000000E+00  0.00000000E+00  0.00000000E+00
  0.00000000E+00  0.00000000E+00  0.00000000E+00
  0.00000000E+00  0.00000000E+00  0.00000000E+00
  0.00000000E+00  0.00000000E+00  0.00000000E+00
  0.00000000E+00  0.00000000E+00  0.00000000E+00
  0.00000000E+00  0.00000000E+00  0.00000000E+00
  0.00000000E+00  0.00000000E+00  0.00000000E+00
  0.00000000E+00  0.00000000E+00  0.00000000E+00
  0.00000000E+00  0.00000000E+00  0.00000000E+00
  0.00000000E+00  0.00000000E+00  0.00000000E+00
  0.00000000E+00  0.00000000E+00  0.00000000E+00
  0.00000000E+00  0.00000000E+00  0.00000000E+00
  0.00000000E+00  0.00000000E+00  0.00000000E+00
  0.00000000E+00  0.00000000E+00  0.00000000E+00
  0.00000000E+00  0.00000000E+00  0.00000000E+00
  0.00000000E+00  0.00000000E+00  0.00000000E+00
  0.00000000E+00  0.00000000E+00  0.00000000E+00
  0.00000000E+00  0.00000000E+00  0.00000000E+00
  0.00000000E+00  0.00000000E+00  0.00000000E+00
  0.00000000E+00  0.00000000E+00  0.00000000E+00
  0.00000000E+00  0.00000000E+00  0.00000000E+00
  0.00000000E+00  0.00000000E+00  0.00000000E+00
  0.00000000E+00  0.00000000E+00  0.00000000E+00
  0.00000000E+00  0.00000000E+00  0.00000000E+00
  0.00000000E+00  0.00000000E+00  0.00000000E+00
  0.00000000E+00  0.00000000E+00  0.00000000E+00
  0.00000000E+00  0.00000000E+00  0.00000000E+00
  0.00000000E+00  0.00000000E+00  0.00000000E+00
  0.00000000E+00  0.00000000E+00  0.00000000E+00
  0.00000000E+00  0.00000000E+00  0.00000000E+00
  0.00000000E+00  0.00000000E+00  0.00000000E+00
  0.00000000E+00  0.00000000E+00  0.00000000E+00
  0.00000000E+00  0.00000000E+00  0.00000000E+00
  0.00000000E+00  0.00000000E+00  0.00000000E+00
  0.00000000E+00  0.00000000E+00  0.00000000E+00
  0.00000000E+00  0.00000000E+00  0.00000000E+00
  0.00000000E+00  0.00000000E+00  0.00000000E+00
  0.00000000E+00  0.00000000E+00  0.00000000E+00
  0.00000000E+00  0.00000000E+00  0.00000000E+00
  0.00000000E+00  0.00000000E+00  0.00000000E+00
  0.00000000E+00  0.00000000E+00  0.00000000E+00
  0.00000000E+00  0.00000000E+00  0.00000000E+00
  0.00000000E+00  0.00000000E+00  0.00000000E+00
  0.00000000E+00  0.00000000E+00  0.00000000E+00
  0.00000000E+00  0.00000000E+00  0.00000000E+00
  0.00000000E+00  0.00000000E+00  0.00000000E+00
  0.00000000E+00  0.00000000E+00  0.00000000E+00
  0.00000000E+00  0.00000000E+00  0.00000000E+00
  0.00000000E+00  0.00000000E+00  0.00000000E+00
  0.00000000E+00  0.00000000E+00  0.00000000E+00
  0.00000000E+00  0.00000000E+00  0.00000000E+00
  0.00000000E+00  0.00000000E+00  0.00000000E+00
  0.00000000E+00  0.00000000E+00  0.00000000E+00
  0.00000000E+00  0.00000000E+00  0.00000000E+00
  0.00000000E+00  0.00000000E+00  0.00000000E+00
  0.00000000E+00  0.00000000E+00  0.00000000E+00
  0.00000000E+00  0.00000000E+00  0.00000000E+00
  0.00000000E+00  0.00000000E+00  0.00000000E+00
  0.00000000E+00  0.00000000E+00  0.00000000E+00
  0.00000000E+00  0.00000000E+00  0.00000000E+00
  0.00000000E+00  0.00000000E+00  0.00000000E+00
  0.00000000E+00  0.00000000E+00  0.00000000E+00
  0.00000000E+00  0.00000000E+00  0.00000000E+00
  0.00000000E+00  0.00000000E+00  0.00000000E+00
  0.00000000E+00  0.00000000E+00  0.00000000E+00
  0.00000000E+00  0.00000000E+00  0.00000000E+00
  0.00000000E+00  0.00000000E+00  0.00000000E+00
  0.00000000E+00  0.00000000E+00  0.00000000E+00
  0.00000000E+00  0.00000000E+00  0.00000000E+00
  0.00000000E+00  0.00000000E+00  0.00000000E+00
  0.00000000E+00  0.00000000E+00  0.00000000E+00
  0.00000000E+00  0.00000000E+00  0.00000000E+00
  0.00000000E+00  0.00000000E+00  0.00000000E+00
  0.00000000E+00  0.00000000E+00  0.00000000E+00
  0.00000000E+00  0.00000000E+00  0.00000000E+00
  0.00000000E+00  0.00000000E+00  0.00000000E+00
  0.00000000E+00  0.00000000E+00  0.00000000E+00
  0.00000000E+00  0.00000000E+00  0.00000000E+00
