Pd N                                    
   1.00000000000000     
     8.3643661146556720    0.0000000000000000    0.0000000000000000
     4.1821830573278360    7.2437535418455532    0.0000000000000000
     0.0000000000000000    0.0000000000000000   29.1059684456587782
   Pd   N 
    45     2
Selective dynamics
Direct
  0.8888888888888857  0.2222222222222214  0.3435721446159761   F   F   F
  0.2222222222222214  0.2222222222222214  0.3435721446159761   F   F   F
  0.5555555555555571  0.2222222222222214  0.3435721446159761   F   F   F
  0.8888888888888857  0.5555555555555571  0.3435721446159761   F   F   F
  0.2222222222222214  0.5555555555555571  0.3435721446159761   F   F   F
  0.5555555555555571  0.5555555555555571  0.3435721446159761   F   F   F
  0.8888888888888857  0.8888888888888857  0.3435721446159761   F   F   F
  0.2222222222222214  0.8888888888888857  0.3435721446159761   F   F   F
  0.5555555555555571  0.8888888888888857  0.3435721446159761   F   F   F
  0.0000000000000000  0.0000000000000000  0.4217860723079880   F   F   F
  0.3333333333333357  0.0000000000000000  0.4217860723079880   F   F   F
  0.6666666666666643  0.0000000000000000  0.4217860723079880   F   F   F
  0.0000000000000000  0.3333333333333357  0.4217860723079880   F   F   F
  0.3333333333333357  0.3333333333333357  0.4217860723079880   F   F   F
  0.6666666666666643  0.3333333333333357  0.4217860723079880   F   F   F
  0.0000000000000000  0.6666666666666643  0.4217860723079880   F   F   F
  0.3333333333333357  0.6666666666666643  0.4217860723079880   F   F   F
  0.6666666666666643  0.6666666666666643  0.4217860723079880   F   F   F
  0.1111111111111143  0.1111111111111143  0.5000000000000000   F   F   F
  0.4444444444444429  0.1111111111111143  0.5000000000000000   F   F   F
  0.7777777777777786  0.1111111111111143  0.5000000000000000   F   F   F
  0.1111111111111143  0.4444444444444429  0.5000000000000000   F   F   F
  0.4444444444444429  0.4444444444444429  0.5000000000000000   F   F   F
  0.7777777777777786  0.4444444444444429  0.5000000000000000   F   F   F
  0.1111111111111143  0.7777777777777786  0.5000000000000000   F   F   F
  0.4444444444444429  0.7777777777777786  0.5000000000000000   F   F   F
  0.7777777777777786  0.7777777777777786  0.5000000000000000   F   F   F
  0.8888888888888857  0.2222222222222214  0.5782139276920120   F   F   F
  0.2222222222222214  0.2222222222222214  0.5782139276920120   F   F   F
  0.5555555555555571  0.2222222222222214  0.5782139276920120   F   F   F
  0.8888888888888857  0.5555555555555571  0.5782139276920120   F   F   F
  0.2222222222222214  0.5555555555555571  0.5782139276920120   F   F   F
  0.5555555555555571  0.5555555555555571  0.5782139276920120   F   F   F
  0.8892729064831278  0.8906742600776812  0.5793795915414046   T   T   T
  0.2209515469180560  0.8907117909459951  0.5788323802199241   T   T   T
  0.5524686853760246  0.8905709491223979  0.5794405164247043   T   T   T
  0.9963281637447485  0.0002761532450109  0.6611429924623380   T   T   T
  0.3334295440069709  0.0003843072591794  0.6613335708267746   T   T   T
  0.6644768629351451  0.0007611890913836  0.6572060887450794   T   T   T
  0.9961360422106185  0.3374352088579584  0.6558586911539627   T   T   T
  0.3312685005332527  0.3344780371919827  0.6567089879743874   T   T   T
  0.6638869135140262  0.3343903300954127  0.6567082414615106   T   T   T
  0.9978379263863820  0.6661796299547779  0.6571288602478158   T   T   T
  0.3330518333640132  0.6638740216579233  0.6559477064537479   T   T   T
  0.6657333912713455  0.6660428885667568  0.6572119171010121   T   T   T
  0.2335736627434131  0.0018172671309678  0.7287159861381535   T   T   T
  0.0952949354671131  0.0019463613294174  0.7285788419317120   T   T   T
 
  0.00000000E+00  0.00000000E+00  0.00000000E+00
  0.00000000E+00  0.00000000E+00  0.00000000E+00
  0.00000000E+00  0.00000000E+00  0.00000000E+00
  0.00000000E+00  0.00000000E+00  0.00000000E+00
  0.00000000E+00  0.00000000E+00  0.00000000E+00
  0.00000000E+00  0.00000000E+00  0.00000000E+00
  0.00000000E+00  0.00000000E+00  0.00000000E+00
  0.00000000E+00  0.00000000E+00  0.00000000E+00
  0.00000000E+00  0.00000000E+00  0.00000000E+00
  0.00000000E+00  0.00000000E+00  0.00000000E+00
  0.00000000E+00  0.00000000E+00  0.00000000E+00
  0.00000000E+00  0.00000000E+00  0.00000000E+00
  0.00000000E+00  0.00000000E+00  0.00000000E+00
  0.00000000E+00  0.00000000E+00  0.00000000E+00
  0.00000000E+00  0.00000000E+00  0.00000000E+00
  0.00000000E+00  0.00000000E+00  0.00000000E+00
  0.00000000E+00  0.00000000E+00  0.00000000E+00
  0.00000000E+00  0.00000000E+00  0.00000000E+00
  0.00000000E+00  0.00000000E+00  0.00000000E+00
  0.00000000E+00  0.00000000E+00  0.00000000E+00
  0.00000000E+00  0.00000000E+00  0.00000000E+00
  0.00000000E+00  0.00000000E+00  0.00000000E+00
  0.00000000E+00  0.00000000E+00  0.00000000E+00
  0.00000000E+00  0.00000000E+00  0.00000000E+00
  0.00000000E+00  0.00000000E+00  0.00000000E+00
  0.00000000E+00  0.00000000E+00  0.00000000E+00
  0.00000000E+00  0.00000000E+00  0.00000000E+00
  0.00000000E+00  0.00000000E+00  0.00000000E+00
  0.00000000E+00  0.00000000E+00  0.00000000E+00
  0.00000000E+00  0.00000000E+00  0.00000000E+00
  0.00000000E+00  0.00000000E+00  0.00000000E+00
  0.00000000E+00  0.00000000E+00  0.00000000E+00
  0.00000000E+00  0.00000000E+00  0.00000000E+00
  0.00000000E+00  0.00000000E+00  0.00000000E+00
  0.00000000E+00  0.00000000E+00  0.00000000E+00
  0.00000000E+00  0.00000000E+00  0.00000000E+00
  0.00000000E+00  0.00000000E+00  0.00000000E+00
  0.00000000E+00  0.00000000E+00  0.00000000E+00
  0.00000000E+00  0.00000000E+00  0.00000000E+00
  0.00000000E+00  0.00000000E+00  0.00000000E+00
  0.00000000E+00  0.00000000E+00  0.00000000E+00
  0.00000000E+00  0.00000000E+00  0.00000000E+00
  0.00000000E+00  0.00000000E+00  0.00000000E+00
  0.00000000E+00  0.00000000E+00  0.00000000E+00
  0.00000000E+00  0.00000000E+00  0.00000000E+00
  0.00000000E+00  0.00000000E+00  0.00000000E+00
  0.00000000E+00  0.00000000E+00  0.00000000E+00
