Pd N                                    
   1.00000000000000     
     8.3643661146556720    0.0000000000000000    0.0000000000000000
     4.1821830573278360    7.2437535418455532    0.0000000000000000
     0.0000000000000000    0.0000000000000000   29.1059684456587782
   Pd   N 
    45     2
Selective dynamics
Direct
  0.8888888888888857  0.2222222222222214  0.3435721446159761   F   F   F
  0.2222222222222214  0.2222222222222214  0.3435721446159761   F   F   F
  0.5555555555555571  0.2222222222222214  0.3435721446159761   F   F   F
  0.8888888888888857  0.5555555555555571  0.3435721446159761   F   F   F
  0.2222222222222214  0.5555555555555571  0.3435721446159761   F   F   F
  0.5555555555555571  0.5555555555555571  0.3435721446159761   F   F   F
  0.8888888888888857  0.8888888888888857  0.3435721446159761   F   F   F
  0.2222222222222214  0.8888888888888857  0.3435721446159761   F   F   F
  0.5555555555555571  0.8888888888888857  0.3435721446159761   F   F   F
  0.0000000000000000  0.0000000000000000  0.4217860723079880   F   F   F
  0.3333333333333357  0.0000000000000000  0.4217860723079880   F   F   F
  0.6666666666666643  0.0000000000000000  0.4217860723079880   F   F   F
  0.0000000000000000  0.3333333333333357  0.4217860723079880   F   F   F
  0.3333333333333357  0.3333333333333357  0.4217860723079880   F   F   F
  0.6666666666666643  0.3333333333333357  0.4217860723079880   F   F   F
  0.0000000000000000  0.6666666666666643  0.4217860723079880   F   F   F
  0.3333333333333357  0.6666666666666643  0.4217860723079880   F   F   F
  0.6666666666666643  0.6666666666666643  0.4217860723079880   F   F   F
  0.1111111111111143  0.1111111111111143  0.5000000000000000   F   F   F
  0.4444444444444429  0.1111111111111143  0.5000000000000000   F   F   F
  0.7777777777777786  0.1111111111111143  0.5000000000000000   F   F   F
  0.1111111111111143  0.4444444444444429  0.5000000000000000   F   F   F
  0.4444444444444429  0.4444444444444429  0.5000000000000000   F   F   F
  0.7777777777777786  0.4444444444444429  0.5000000000000000   F   F   F
  0.1111111111111143  0.7777777777777786  0.5000000000000000   F   F   F
  0.4444444444444429  0.7777777777777786  0.5000000000000000   F   F   F
  0.7777777777777786  0.7777777777777786  0.5000000000000000   F   F   F
  0.8888888888888857  0.2222222222222214  0.5782139276920120   F   F   F
  0.2222222222222214  0.2222222222222214  0.5782139276920120   F   F   F
  0.5555555555555571  0.2222222222222214  0.5782139276920120   F   F   F
  0.8888888888888857  0.5555555555555571  0.5782139276920120   F   F   F
  0.2222222222222214  0.5555555555555571  0.5782139276920120   F   F   F
  0.5555555555555571  0.5555555555555571  0.5782139276920120   F   F   F
  0.8888888888888857  0.8888888888888857  0.5782139276920120   F   F   F
  0.2222222222222214  0.8888888888888857  0.5782139276920120   F   F   F
  0.5555555555555571  0.8888888888888857  0.5782139276920120   F   F   F
 -0.0000000000000000  0.0000000000000000  0.6596466901392566   T   T   T
  0.3357168600897856  0.9998354518280886  0.6565507889169557   T   T   T
  0.6644476880821243  0.9998354518280886  0.6565507889169557   T   T   T
  0.9998354518280886  0.3357168600897856  0.6565507889169557   T   T   T
  0.3333333333333357  0.3333333333333357  0.6570569988900643   T   T   T
  0.6644476880821243  0.3357168600897856  0.6565507889169557   T   T   T
  0.9998354518280886  0.6644476880821243  0.6565507889169557   T   T   T
  0.3357168600897856  0.6644476880821243  0.6565507889169557   T   T   T
  0.6666666666666643  0.6666666666666643  0.6573110150606234   T   T   T
 -0.0000000000000000  0.0000000000000000  0.7285732876973127   T   T   T
 -0.0000000000000000  0.0000000000000000  0.7672753045275237   T   T   T
 
  0.00000000E+00  0.00000000E+00  0.00000000E+00
  0.00000000E+00  0.00000000E+00  0.00000000E+00
  0.00000000E+00  0.00000000E+00  0.00000000E+00
  0.00000000E+00  0.00000000E+00  0.00000000E+00
  0.00000000E+00  0.00000000E+00  0.00000000E+00
  0.00000000E+00  0.00000000E+00  0.00000000E+00
  0.00000000E+00  0.00000000E+00  0.00000000E+00
  0.00000000E+00  0.00000000E+00  0.00000000E+00
  0.00000000E+00  0.00000000E+00  0.00000000E+00
  0.00000000E+00  0.00000000E+00  0.00000000E+00
  0.00000000E+00  0.00000000E+00  0.00000000E+00
  0.00000000E+00  0.00000000E+00  0.00000000E+00
  0.00000000E+00  0.00000000E+00  0.00000000E+00
  0.00000000E+00  0.00000000E+00  0.00000000E+00
  0.00000000E+00  0.00000000E+00  0.00000000E+00
  0.00000000E+00  0.00000000E+00  0.00000000E+00
  0.00000000E+00  0.00000000E+00  0.00000000E+00
  0.00000000E+00  0.00000000E+00  0.00000000E+00
  0.00000000E+00  0.00000000E+00  0.00000000E+00
  0.00000000E+00  0.00000000E+00  0.00000000E+00
  0.00000000E+00  0.00000000E+00  0.00000000E+00
  0.00000000E+00  0.00000000E+00  0.00000000E+00
  0.00000000E+00  0.00000000E+00  0.00000000E+00
  0.00000000E+00  0.00000000E+00  0.00000000E+00
  0.00000000E+00  0.00000000E+00  0.00000000E+00
  0.00000000E+00  0.00000000E+00  0.00000000E+00
  0.00000000E+00  0.00000000E+00  0.00000000E+00
  0.00000000E+00  0.00000000E+00  0.00000000E+00
  0.00000000E+00  0.00000000E+00  0.00000000E+00
  0.00000000E+00  0.00000000E+00  0.00000000E+00
  0.00000000E+00  0.00000000E+00  0.00000000E+00
  0.00000000E+00  0.00000000E+00  0.00000000E+00
  0.00000000E+00  0.00000000E+00  0.00000000E+00
  0.00000000E+00  0.00000000E+00  0.00000000E+00
  0.00000000E+00  0.00000000E+00  0.00000000E+00
  0.00000000E+00  0.00000000E+00  0.00000000E+00
  0.00000000E+00  0.00000000E+00  0.00000000E+00
  0.00000000E+00  0.00000000E+00  0.00000000E+00
  0.00000000E+00  0.00000000E+00  0.00000000E+00
  0.00000000E+00  0.00000000E+00  0.00000000E+00
  0.00000000E+00  0.00000000E+00  0.00000000E+00
  0.00000000E+00  0.00000000E+00  0.00000000E+00
  0.00000000E+00  0.00000000E+00  0.00000000E+00
  0.00000000E+00  0.00000000E+00  0.00000000E+00
  0.00000000E+00  0.00000000E+00  0.00000000E+00
  0.00000000E+00  0.00000000E+00  0.00000000E+00
  0.00000000E+00  0.00000000E+00  0.00000000E+00
