Pd N                                    
   1.00000000000000     
     8.3643661146556720    0.0000000000000000    0.0000000000000000
     4.1821830573278360    7.2437535418455532    0.0000000000000000
     0.0000000000000000    0.0000000000000000   29.1059684456587782
   Pd   N 
    45     2
Selective dynamics
Direct
  0.8888888888888857  0.2222222222222214  0.3435721446159761   F   F   F
  0.2222222222222214  0.2222222222222214  0.3435721446159761   F   F   F
  0.5555555555555571  0.2222222222222214  0.3435721446159761   F   F   F
  0.8888888888888857  0.5555555555555571  0.3435721446159761   F   F   F
  0.2222222222222214  0.5555555555555571  0.3435721446159761   F   F   F
  0.5555555555555571  0.5555555555555571  0.3435721446159761   F   F   F
  0.8888888888888857  0.8888888888888857  0.3435721446159761   F   F   F
  0.2222222222222214  0.8888888888888857  0.3435721446159761   F   F   F
  0.5555555555555571  0.8888888888888857  0.3435721446159761   F   F   F
  0.0000000000000000  0.0000000000000000  0.4217860723079880   F   F   F
  0.3333333333333357  0.0000000000000000  0.4217860723079880   F   F   F
  0.6666666666666643  0.0000000000000000  0.4217860723079880   F   F   F
  0.0000000000000000  0.3333333333333357  0.4217860723079880   F   F   F
  0.3333333333333357  0.3333333333333357  0.4217860723079880   F   F   F
  0.6666666666666643  0.3333333333333357  0.4217860723079880   F   F   F
  0.0000000000000000  0.6666666666666643  0.4217860723079880   F   F   F
  0.3333333333333357  0.6666666666666643  0.4217860723079880   F   F   F
  0.6666666666666643  0.6666666666666643  0.4217860723079880   F   F   F
  0.1111111111111143  0.1111111111111143  0.5000000000000000   F   F   F
  0.4444444444444429  0.1111111111111143  0.5000000000000000   F   F   F
  0.7777777777777786  0.1111111111111143  0.5000000000000000   F   F   F
  0.1111111111111143  0.4444444444444429  0.5000000000000000   F   F   F
  0.4444444444444429  0.4444444444444429  0.5000000000000000   F   F   F
  0.7777777777777786  0.4444444444444429  0.5000000000000000   F   F   F
  0.1111111111111143  0.7777777777777786  0.5000000000000000   F   F   F
  0.4444444444444429  0.7777777777777786  0.5000000000000000   F   F   F
  0.7777777777777786  0.7777777777777786  0.5000000000000000   F   F   F
  0.8888888888888857  0.2222222222222214  0.5782139276920120   F   F   F
  0.2222222222222214  0.2222222222222214  0.5782139276920120   F   F   F
  0.5555555555555571  0.2222222222222214  0.5782139276920120   F   F   F
  0.8888888888888857  0.5555555555555571  0.5782139276920120   F   F   F
  0.2222222222222214  0.5555555555555571  0.5782139276920120   F   F   F
  0.5555555555555571  0.5555555555555571  0.5782139276920120   F   F   F
  0.8888888888888857  0.8888888888888857  0.5782139276920120   F   F   F
  0.2222222222222214  0.8888888888888857  0.5782139276920120   F   F   F
  0.5555555555555571  0.8888888888888857  0.5782139276920120   F   F   F
 -0.0012241120797676 -0.0012241120797676  0.6565698158609281   T   T   T
  0.3342725027758828 -0.0018783388850942  0.6586767633339659   T   T   T
  0.6691148908261996 -0.0012241120797676  0.6565698158609281   T   T   T
 -0.0018783388850942  0.3342725027758828  0.6586767633339659   T   T   T
  0.3342725027758828  0.3342725027758828  0.6586767633339659   T   T   T
  0.6665652462811850  0.3335361741042948  0.6566163715583736   T   T   T
 -0.0012241120797676  0.6691148908261996  0.6565698158609281   T   T   T
  0.3335361741042948  0.6665652462811850  0.6566163715583736   T   T   T
  0.6665652462811850  0.6665652462811850  0.6566163715583736   T   T   T
  0.2222222222222214  0.2222222222222214  0.7122677729580427   T   T   T
  0.2222222222222214  0.2222222222222214  0.7516318499328730   T   T   T
 
  0.00000000E+00  0.00000000E+00  0.00000000E+00
  0.00000000E+00  0.00000000E+00  0.00000000E+00
  0.00000000E+00  0.00000000E+00  0.00000000E+00
  0.00000000E+00  0.00000000E+00  0.00000000E+00
  0.00000000E+00  0.00000000E+00  0.00000000E+00
  0.00000000E+00  0.00000000E+00  0.00000000E+00
  0.00000000E+00  0.00000000E+00  0.00000000E+00
  0.00000000E+00  0.00000000E+00  0.00000000E+00
  0.00000000E+00  0.00000000E+00  0.00000000E+00
  0.00000000E+00  0.00000000E+00  0.00000000E+00
  0.00000000E+00  0.00000000E+00  0.00000000E+00
  0.00000000E+00  0.00000000E+00  0.00000000E+00
  0.00000000E+00  0.00000000E+00  0.00000000E+00
  0.00000000E+00  0.00000000E+00  0.00000000E+00
  0.00000000E+00  0.00000000E+00  0.00000000E+00
  0.00000000E+00  0.00000000E+00  0.00000000E+00
  0.00000000E+00  0.00000000E+00  0.00000000E+00
  0.00000000E+00  0.00000000E+00  0.00000000E+00
  0.00000000E+00  0.00000000E+00  0.00000000E+00
  0.00000000E+00  0.00000000E+00  0.00000000E+00
  0.00000000E+00  0.00000000E+00  0.00000000E+00
  0.00000000E+00  0.00000000E+00  0.00000000E+00
  0.00000000E+00  0.00000000E+00  0.00000000E+00
  0.00000000E+00  0.00000000E+00  0.00000000E+00
  0.00000000E+00  0.00000000E+00  0.00000000E+00
  0.00000000E+00  0.00000000E+00  0.00000000E+00
  0.00000000E+00  0.00000000E+00  0.00000000E+00
  0.00000000E+00  0.00000000E+00  0.00000000E+00
  0.00000000E+00  0.00000000E+00  0.00000000E+00
  0.00000000E+00  0.00000000E+00  0.00000000E+00
  0.00000000E+00  0.00000000E+00  0.00000000E+00
  0.00000000E+00  0.00000000E+00  0.00000000E+00
  0.00000000E+00  0.00000000E+00  0.00000000E+00
  0.00000000E+00  0.00000000E+00  0.00000000E+00
  0.00000000E+00  0.00000000E+00  0.00000000E+00
  0.00000000E+00  0.00000000E+00  0.00000000E+00
  0.00000000E+00  0.00000000E+00  0.00000000E+00
  0.00000000E+00  0.00000000E+00  0.00000000E+00
  0.00000000E+00  0.00000000E+00  0.00000000E+00
  0.00000000E+00  0.00000000E+00  0.00000000E+00
  0.00000000E+00  0.00000000E+00  0.00000000E+00
  0.00000000E+00  0.00000000E+00  0.00000000E+00
  0.00000000E+00  0.00000000E+00  0.00000000E+00
  0.00000000E+00  0.00000000E+00  0.00000000E+00
  0.00000000E+00  0.00000000E+00  0.00000000E+00
  0.00000000E+00  0.00000000E+00  0.00000000E+00
  0.00000000E+00  0.00000000E+00  0.00000000E+00
