Pd N 
 1.0000000000000000
     8.3643661146556720    0.0000000000000000    0.0000000000000000
     4.1821830573278360    7.2437535418455532    0.0000000000000000
     0.0000000000000000    0.0000000000000000   29.1059684456587782
 Pd  N  
  45   2
Selective Dynamics
Cartesian
 -0.0000000000000000  1.6097230092990116 10.0000000000000000	F  F  F
  2.7881220382185572  1.6097230092990116 10.0000000000000000    F  F  F
  5.5762440764371144  1.6097230092990116 10.0000000000000000    F  F  F
  1.3940610191092784  4.0243075232475292 10.0000000000000000    F  F  F
  4.1821830573278360  4.0243075232475292 10.0000000000000000    F  F  F
  6.9703050955463928  4.0243075232475292 10.0000000000000000    F  F  F
  2.7881220382185572  6.4388920371960463 10.0000000000000000    F  F  F
  5.5762440764371144  6.4388920371960463 10.0000000000000000    F  F  F
  8.3643661146556720  6.4388920371960463 10.0000000000000000    F  F  F
  0.0000000000000000  0.0000000000000000 12.2764921114146937    F  F  F
  2.7881220382185572  0.0000000000000000 12.2764921114146937    F  F  F
  5.5762440764371144  0.0000000000000000 12.2764921114146937    F  F  F
  1.3940610191092786  2.4145845139485176 12.2764921114146937    F  F  F
  4.1821830573278360  2.4145845139485176 12.2764921114146937    F  F  F
  6.9703050955463928  2.4145845139485176 12.2764921114146937    F  F  F
  2.7881220382185572  4.8291690278970352 12.2764921114146937    F  F  F
  5.5762440764371144  4.8291690278970352 12.2764921114146937    F  F  F
  8.3643661146556720  4.8291690278970352 12.2764921114146937    F  F  F
  1.3940610191092786  0.8048615046495058 14.5529842228293891    F  F  F
  4.1821830573278360  0.8048615046495058 14.5529842228293891    F  F  F
  6.9703050955463937  0.8048615046495058 14.5529842228293891    F  F  F
  2.7881220382185572  3.2194460185980232 14.5529842228293891    F  F  F
  5.5762440764371144  3.2194460185980232 14.5529842228293891    F  F  F
  8.3643661146556720  3.2194460185980232 14.5529842228293891    F  F  F
  4.1821830573278360  5.6340305325465412 14.5529842228293891    F  F  F
  6.9703050955463928  5.6340305325465412 14.5529842228293891    F  F  F
  9.7584271337649504  5.6340305325465412 14.5529842228293891    F  F  F
 -0.0000000000000000  1.6097230092990116 16.8294763342440845    F  F  F
  2.7881220382185572  1.6097230092990116 16.8294763342440845    F  F  F
  5.5762440764371144  1.6097230092990116 16.8294763342440845    F  F  F
  1.3940610191092784  4.0243075232475292 16.8294763342440845    F  F  F
  4.1821830573278360  4.0243075232475292 16.8294763342440845    F  F  F
  6.9703050955463928  4.0243075232475292 16.8294763342440845    F  F  F
  2.7881220382185572  6.4388920371960463 16.8294763342440845    T  T  T
  5.5762440764371144  6.4388920371960463 16.8294763342440845    T  T  T
  8.3643661146556720  6.4388920371960463 16.8294763342440845    T  T  T
  0.0000000000000000  0.0000000000000000 19.1059684456587782    T  T  T
  2.7881220382185572  0.0000000000000000 19.1059684456587782    T  T  T
  5.5762440764371144  0.0000000000000000 19.1059684456587782    T  T  T
  1.3940610191092786  2.4145845139485176 19.1059684456587782    T  T  T
  4.1821830573278360  2.4145845139485176 19.1059684456587782    T  T  T
  6.9703050955463928  2.4145845139485176 19.1059684456587782    T  T  T
  2.7881220382185572  4.8291690278970352 19.1059684456587782    T  T  T
  5.5762440764371144  4.8291690278970352 19.1059684456587782    T  T  T
  8.3643661146556720  4.8291690278970352 19.1059684456587782    T  T  T
  1.3940610191092786  0.0000000000000000 24.1059684456587782    T  T  T
  0.2640810191092786  0.0000000000000000 24.1059684456587782    T  T  T
