Pd N                                    
   1.00000000000000     
     5.5948640339220930    0.0000000000000000    0.0000000000000000
     2.7974320169610465    4.8452943840964133    0.0000000000000000
     0.0000000000000000    0.0000000000000000   24.5681873544528955
   Pd   N 
    12     2
Selective dynamics
Direct
  0.1666666666666643  0.1666666666666643  0.4070304355680321   F   F   F
  0.6666666666666643  0.1666666666666643  0.4070304355680321   F   F   F
  0.1666666666666643  0.6666666666666643  0.4070304355680321   F   F   F
  0.6666666666666643  0.6666666666666643  0.4070304355680321   F   F   F
  0.8333333333333357  0.3333333333333357  0.5000000000000000   T   T   T
  0.3333333333333357  0.3333333333333357  0.5000000000000000   T   T   T
  0.8333333333333357  0.8333333333333357  0.5000000000000000   T   T   T
  0.3333333333333357  0.8333333333333357  0.5000000000000000   T   T   T
  0.0000000000000000  0.0000000000000000  0.5929695644319679   T   T   T
  0.5000000000000000  0.0000000000000000  0.5929695644319679   T   T   T
  0.0000000000000000  0.5000000000000000  0.5929695644319679   T   T   T
  0.5000000000000000  0.5000000000000000  0.5929695644319679   T   T   T
  0.1666666666666643  0.1666666666666643  0.6743756515455743   T   T   T
  0.1666666666666643  0.1666666666666643  0.7203692767038916   T   T   T
 
  0.00000000E+00  0.00000000E+00  0.00000000E+00
  0.00000000E+00  0.00000000E+00  0.00000000E+00
  0.00000000E+00  0.00000000E+00  0.00000000E+00
  0.00000000E+00  0.00000000E+00  0.00000000E+00
  0.00000000E+00  0.00000000E+00  0.00000000E+00
  0.00000000E+00  0.00000000E+00  0.00000000E+00
  0.00000000E+00  0.00000000E+00  0.00000000E+00
  0.00000000E+00  0.00000000E+00  0.00000000E+00
  0.00000000E+00  0.00000000E+00  0.00000000E+00
  0.00000000E+00  0.00000000E+00  0.00000000E+00
  0.00000000E+00  0.00000000E+00  0.00000000E+00
  0.00000000E+00  0.00000000E+00  0.00000000E+00
  0.00000000E+00  0.00000000E+00  0.00000000E+00
  0.00000000E+00  0.00000000E+00  0.00000000E+00
