Pd N                                    
   1.00000000000000     
     8.3643661146556720    0.0000000000000000    0.0000000000000000
     4.1821830573278360    7.2437535418455532    0.0000000000000000
     0.0000000000000000    0.0000000000000000   29.1059684456587782
   Pd   N 
    45     2
Selective dynamics
Direct
  0.8888888888888857  0.2222222222222214  0.3435721446159761   F   F   F
  0.2222222222222214  0.2222222222222214  0.3435721446159761   F   F   F
  0.5555555555555571  0.2222222222222214  0.3435721446159761   F   F   F
  0.8888888888888857  0.5555555555555571  0.3435721446159761   F   F   F
  0.2222222222222214  0.5555555555555571  0.3435721446159761   F   F   F
  0.5555555555555571  0.5555555555555571  0.3435721446159761   F   F   F
  0.8888888888888857  0.8888888888888857  0.3435721446159761   F   F   F
  0.2222222222222214  0.8888888888888857  0.3435721446159761   F   F   F
  0.5555555555555571  0.8888888888888857  0.3435721446159761   F   F   F
  0.0000000000000000  0.0000000000000000  0.4217860723079880   F   F   F
  0.3333333333333357  0.0000000000000000  0.4217860723079880   F   F   F
  0.6666666666666643  0.0000000000000000  0.4217860723079880   F   F   F
  0.0000000000000000  0.3333333333333357  0.4217860723079880   F   F   F
  0.3333333333333357  0.3333333333333357  0.4217860723079880   F   F   F
  0.6666666666666643  0.3333333333333357  0.4217860723079880   F   F   F
  0.0000000000000000  0.6666666666666643  0.4217860723079880   F   F   F
  0.3333333333333357  0.6666666666666643  0.4217860723079880   F   F   F
  0.6666666666666643  0.6666666666666643  0.4217860723079880   F   F   F
  0.1111111111111143  0.1111111111111143  0.5000000000000000   F   F   F
  0.4444444444444429  0.1111111111111143  0.5000000000000000   F   F   F
  0.7777777777777786  0.1111111111111143  0.5000000000000000   F   F   F
  0.1111111111111143  0.4444444444444429  0.5000000000000000   F   F   F
  0.4444444444444429  0.4444444444444429  0.5000000000000000   F   F   F
  0.7777777777777786  0.4444444444444429  0.5000000000000000   F   F   F
  0.1111111111111143  0.7777777777777786  0.5000000000000000   F   F   F
  0.4444444444444429  0.7777777777777786  0.5000000000000000   F   F   F
  0.7777777777777786  0.7777777777777786  0.5000000000000000   F   F   F
  0.8888888888888857  0.2222222222222214  0.5782139276920120   F   F   F
  0.2222222222222214  0.2222222222222214  0.5782139276920120   F   F   F
  0.5555555555555571  0.2222222222222214  0.5782139276920120   F   F   F
  0.8888888888888857  0.5555555555555571  0.5782139276920120   F   F   F
  0.2222222222222214  0.5555555555555571  0.5782139276920120   F   F   F
  0.5555555555555571  0.5555555555555571  0.5782139276920120   F   F   F
  0.8888888888888857  0.8888888888888857  0.5782139276920120   F   F   F
  0.2222222222222214  0.8888888888888857  0.5782139276920120   F   F   F
  0.5555555555555571  0.8888888888888857  0.5782139276920120   F   F   F
  0.9943371959198861  0.0004218452944038  0.6604696064904508   T   T   T
  0.3306717872519349  1.0001480589312137  0.6567416955546552   T   T   T
  0.6597067286557901  1.0000695224227483  0.6562167772360077   T   T   T
  0.9964513700073552  0.3350111291718103  0.6566477607551284   T   T   T
  0.3295974285615624  0.3336429019758490  0.6570071114685608   T   T   T
  0.6605446418328531  0.3366379092405293  0.6564483713785991   T   T   T
  0.9965766002779652  0.6642838523325028  0.6564124711942292   T   T   T
  0.3313766681040970  0.6656104820398432  0.6566931921943877   T   T   T
  0.6629793379508720  0.6669025189550105  0.6572448431835398   T   T   T
  0.9496956374999503  0.0008309015244983  0.7289441979221767   T   T   T
  0.9017914592025302  0.0012996036508008  0.7651575544746788   T   T   T
 
  0.00000000E+00  0.00000000E+00  0.00000000E+00
  0.00000000E+00  0.00000000E+00  0.00000000E+00
  0.00000000E+00  0.00000000E+00  0.00000000E+00
  0.00000000E+00  0.00000000E+00  0.00000000E+00
  0.00000000E+00  0.00000000E+00  0.00000000E+00
  0.00000000E+00  0.00000000E+00  0.00000000E+00
  0.00000000E+00  0.00000000E+00  0.00000000E+00
  0.00000000E+00  0.00000000E+00  0.00000000E+00
  0.00000000E+00  0.00000000E+00  0.00000000E+00
  0.00000000E+00  0.00000000E+00  0.00000000E+00
  0.00000000E+00  0.00000000E+00  0.00000000E+00
  0.00000000E+00  0.00000000E+00  0.00000000E+00
  0.00000000E+00  0.00000000E+00  0.00000000E+00
  0.00000000E+00  0.00000000E+00  0.00000000E+00
  0.00000000E+00  0.00000000E+00  0.00000000E+00
  0.00000000E+00  0.00000000E+00  0.00000000E+00
  0.00000000E+00  0.00000000E+00  0.00000000E+00
  0.00000000E+00  0.00000000E+00  0.00000000E+00
  0.00000000E+00  0.00000000E+00  0.00000000E+00
  0.00000000E+00  0.00000000E+00  0.00000000E+00
  0.00000000E+00  0.00000000E+00  0.00000000E+00
  0.00000000E+00  0.00000000E+00  0.00000000E+00
  0.00000000E+00  0.00000000E+00  0.00000000E+00
  0.00000000E+00  0.00000000E+00  0.00000000E+00
  0.00000000E+00  0.00000000E+00  0.00000000E+00
  0.00000000E+00  0.00000000E+00  0.00000000E+00
  0.00000000E+00  0.00000000E+00  0.00000000E+00
  0.00000000E+00  0.00000000E+00  0.00000000E+00
  0.00000000E+00  0.00000000E+00  0.00000000E+00
  0.00000000E+00  0.00000000E+00  0.00000000E+00
  0.00000000E+00  0.00000000E+00  0.00000000E+00
  0.00000000E+00  0.00000000E+00  0.00000000E+00
  0.00000000E+00  0.00000000E+00  0.00000000E+00
  0.00000000E+00  0.00000000E+00  0.00000000E+00
  0.00000000E+00  0.00000000E+00  0.00000000E+00
  0.00000000E+00  0.00000000E+00  0.00000000E+00
  0.00000000E+00  0.00000000E+00  0.00000000E+00
  0.00000000E+00  0.00000000E+00  0.00000000E+00
  0.00000000E+00  0.00000000E+00  0.00000000E+00
  0.00000000E+00  0.00000000E+00  0.00000000E+00
  0.00000000E+00  0.00000000E+00  0.00000000E+00
  0.00000000E+00  0.00000000E+00  0.00000000E+00
  0.00000000E+00  0.00000000E+00  0.00000000E+00
  0.00000000E+00  0.00000000E+00  0.00000000E+00
  0.00000000E+00  0.00000000E+00  0.00000000E+00
  0.00000000E+00  0.00000000E+00  0.00000000E+00
  0.00000000E+00  0.00000000E+00  0.00000000E+00
