Pd N                                    
   1.00000000000000     
     8.3643661146556720    0.0000000000000000    0.0000000000000000
     4.1821830573278360    7.2437535418455532    0.0000000000000000
     0.0000000000000000    0.0000000000000000   29.1059684456587782
   Pd   N 
    45     2
Selective dynamics
Direct
  0.8888888888888857  0.2222222222222214  0.3435721446159761   F   F   F
  0.2222222222222214  0.2222222222222214  0.3435721446159761   F   F   F
  0.5555555555555571  0.2222222222222214  0.3435721446159761   F   F   F
  0.8888888888888857  0.5555555555555571  0.3435721446159761   F   F   F
  0.2222222222222214  0.5555555555555571  0.3435721446159761   F   F   F
  0.5555555555555571  0.5555555555555571  0.3435721446159761   F   F   F
  0.8888888888888857  0.8888888888888857  0.3435721446159761   F   F   F
  0.2222222222222214  0.8888888888888857  0.3435721446159761   F   F   F
  0.5555555555555571  0.8888888888888857  0.3435721446159761   F   F   F
  0.0000000000000000  0.0000000000000000  0.4217860723079880   F   F   F
  0.3333333333333357  0.0000000000000000  0.4217860723079880   F   F   F
  0.6666666666666643  0.0000000000000000  0.4217860723079880   F   F   F
  0.0000000000000000  0.3333333333333357  0.4217860723079880   F   F   F
  0.3333333333333357  0.3333333333333357  0.4217860723079880   F   F   F
  0.6666666666666643  0.3333333333333357  0.4217860723079880   F   F   F
  0.0000000000000000  0.6666666666666643  0.4217860723079880   F   F   F
  0.3333333333333357  0.6666666666666643  0.4217860723079880   F   F   F
  0.6666666666666643  0.6666666666666643  0.4217860723079880   F   F   F
  0.1111111111111143  0.1111111111111143  0.5000000000000000   F   F   F
  0.4444444444444429  0.1111111111111143  0.5000000000000000   F   F   F
  0.7777777777777786  0.1111111111111143  0.5000000000000000   F   F   F
  0.1111111111111143  0.4444444444444429  0.5000000000000000   F   F   F
  0.4444444444444429  0.4444444444444429  0.5000000000000000   F   F   F
  0.7777777777777786  0.4444444444444429  0.5000000000000000   F   F   F
  0.1111111111111143  0.7777777777777786  0.5000000000000000   F   F   F
  0.4444444444444429  0.7777777777777786  0.5000000000000000   F   F   F
  0.7777777777777786  0.7777777777777786  0.5000000000000000   F   F   F
  0.8888888888888857  0.2222222222222214  0.5782139276920120   F   F   F
  0.2222222222222214  0.2222222222222214  0.5782139276920120   F   F   F
  0.5555555555555571  0.2222222222222214  0.5782139276920120   F   F   F
  0.8913553541889280  0.5519965783504597  0.5791328477189238   T   T   T
  0.2229113218161006  0.5556765985673426  0.5779394668952827   T   T   T
  0.5560327879910665  0.5554911387226324  0.5778964020541613   T   T   T
  0.8892087631520016  0.8881140575517233  0.5777764409434996   T   T   T
  0.2229200794907634  0.8885819543781436  0.5779973723728751   T   T   T
  0.5572013571842608  0.8879225692391910  0.5777647357602052   T   T   T
  0.0016229830716095  0.9981173946835057  0.6561789627133511   T   T   T
  0.3384044669853760  0.9978540505728125  0.6561285779638841   T   T   T
  0.6690789848208127 -0.0001147331875795  0.6570386670440294   T   T   T
  0.0032957132816876  0.3331316980212436  0.6605809781073930   T   T   T
  0.3376641708786966  0.3332093820481772  0.6564770590633333   T   T   T
  0.6672791660480266  0.3330368969318278  0.6564276046983916   T   T   T
  0.0022912542764304  0.6692285981542140  0.6565728114041878   T   T   T
  0.3358532757298641  0.6662733095903084  0.6566553293043246   T   T   T
  0.6666255450417001  0.6687011823082207  0.6565008733390775   T   T   T
  0.9972562309467754  0.3294856627307765  0.7682794780421049   T   T   T
  0.0013096445797042  0.3313189691032291  0.7296060002333968   T   T   T
 
  0.00000000E+00  0.00000000E+00  0.00000000E+00
  0.00000000E+00  0.00000000E+00  0.00000000E+00
  0.00000000E+00  0.00000000E+00  0.00000000E+00
  0.00000000E+00  0.00000000E+00  0.00000000E+00
  0.00000000E+00  0.00000000E+00  0.00000000E+00
  0.00000000E+00  0.00000000E+00  0.00000000E+00
  0.00000000E+00  0.00000000E+00  0.00000000E+00
  0.00000000E+00  0.00000000E+00  0.00000000E+00
  0.00000000E+00  0.00000000E+00  0.00000000E+00
  0.00000000E+00  0.00000000E+00  0.00000000E+00
  0.00000000E+00  0.00000000E+00  0.00000000E+00
  0.00000000E+00  0.00000000E+00  0.00000000E+00
  0.00000000E+00  0.00000000E+00  0.00000000E+00
  0.00000000E+00  0.00000000E+00  0.00000000E+00
  0.00000000E+00  0.00000000E+00  0.00000000E+00
  0.00000000E+00  0.00000000E+00  0.00000000E+00
  0.00000000E+00  0.00000000E+00  0.00000000E+00
  0.00000000E+00  0.00000000E+00  0.00000000E+00
  0.00000000E+00  0.00000000E+00  0.00000000E+00
  0.00000000E+00  0.00000000E+00  0.00000000E+00
  0.00000000E+00  0.00000000E+00  0.00000000E+00
  0.00000000E+00  0.00000000E+00  0.00000000E+00
  0.00000000E+00  0.00000000E+00  0.00000000E+00
  0.00000000E+00  0.00000000E+00  0.00000000E+00
  0.00000000E+00  0.00000000E+00  0.00000000E+00
  0.00000000E+00  0.00000000E+00  0.00000000E+00
  0.00000000E+00  0.00000000E+00  0.00000000E+00
  0.00000000E+00  0.00000000E+00  0.00000000E+00
  0.00000000E+00  0.00000000E+00  0.00000000E+00
  0.00000000E+00  0.00000000E+00  0.00000000E+00
  0.00000000E+00  0.00000000E+00  0.00000000E+00
  0.00000000E+00  0.00000000E+00  0.00000000E+00
  0.00000000E+00  0.00000000E+00  0.00000000E+00
  0.00000000E+00  0.00000000E+00  0.00000000E+00
  0.00000000E+00  0.00000000E+00  0.00000000E+00
  0.00000000E+00  0.00000000E+00  0.00000000E+00
  0.00000000E+00  0.00000000E+00  0.00000000E+00
  0.00000000E+00  0.00000000E+00  0.00000000E+00
  0.00000000E+00  0.00000000E+00  0.00000000E+00
  0.00000000E+00  0.00000000E+00  0.00000000E+00
  0.00000000E+00  0.00000000E+00  0.00000000E+00
  0.00000000E+00  0.00000000E+00  0.00000000E+00
  0.00000000E+00  0.00000000E+00  0.00000000E+00
  0.00000000E+00  0.00000000E+00  0.00000000E+00
  0.00000000E+00  0.00000000E+00  0.00000000E+00
  0.00000000E+00  0.00000000E+00  0.00000000E+00
  0.00000000E+00  0.00000000E+00  0.00000000E+00
