Pd N                                    
   1.00000000000000     
     8.3643661146556720    0.0000000000000000    0.0000000000000000
     4.1821830573278360    7.2437535418455532    0.0000000000000000
     0.0000000000000000    0.0000000000000000   29.1059684456587782
   Pd   N 
    45     2
Selective dynamics
Direct
  0.8888888888888857  0.2222222222222214  0.3435721446159761   F   F   F
  0.2222222222222214  0.2222222222222214  0.3435721446159761   F   F   F
  0.5555555555555571  0.2222222222222214  0.3435721446159761   F   F   F
  0.8888888888888857  0.5555555555555571  0.3435721446159761   F   F   F
  0.2222222222222214  0.5555555555555571  0.3435721446159761   F   F   F
  0.5555555555555571  0.5555555555555571  0.3435721446159761   F   F   F
  0.8888888888888857  0.8888888888888857  0.3435721446159761   F   F   F
  0.2222222222222214  0.8888888888888857  0.3435721446159761   F   F   F
  0.5555555555555571  0.8888888888888857  0.3435721446159761   F   F   F
  0.0000000000000000  0.0000000000000000  0.4217860723079880   F   F   F
  0.3333333333333357  0.0000000000000000  0.4217860723079880   F   F   F
  0.6666666666666643  0.0000000000000000  0.4217860723079880   F   F   F
  0.0000000000000000  0.3333333333333357  0.4217860723079880   F   F   F
  0.3333333333333357  0.3333333333333357  0.4217860723079880   F   F   F
  0.6666666666666643  0.3333333333333357  0.4217860723079880   F   F   F
  0.0000000000000000  0.6666666666666643  0.4217860723079880   F   F   F
  0.3333333333333357  0.6666666666666643  0.4217860723079880   F   F   F
  0.6666666666666643  0.6666666666666643  0.4217860723079880   F   F   F
  0.1107192569499282  0.1120648219113845  0.5002930548681450   T   T   T
  0.4445245804032571  0.1123261359900220  0.4997095852206417   T   T   T
  0.7783567733653077  0.1119471357367367  0.5005456060076802   T   T   T
  0.1110039870948699  0.4458507122256447  0.4997083533486970   T   T   T
  0.4444030139297108  0.4457242735610634  0.4998042787852580   T   T   T
  0.7778543129441595  0.4456869328239551  0.4998773618949843   T   T   T
  0.1106070370360205  0.7796915036644753  0.5005251473546957   T   T   T
  0.4443693043912649  0.7791686268156545  0.4998670056402035   T   T   T
  0.7782444866674766  0.7795827306951545  0.5000813113275768   T   T   T
  0.8897625029831532  0.2233853468399204  0.5790903020998773   T   T   T
  0.2225339085069886  0.2252492447818457  0.5775979610868985   T   T   T
  0.5552225498428672  0.2249999278807180  0.5780024722468373   T   T   T
  0.8890098807083242  0.5591907842163518  0.5777035684082910   T   T   T
  0.2222749292855669  0.5579546790688725  0.5779953323483927   T   T   T
  0.5556566920336700  0.5583595775806808  0.5777274870797576   T   T   T
  0.8907013665154535  0.8934544007047450  0.5801727002867847   T   T   T
  0.2206981840238074  0.8924739878365060  0.5790577160096315   T   T   T
  0.5564873637741663  0.8916935156193125  0.5777013223975505   T   T   T
  0.0016490328926097  0.0056036599679766  0.6622486676086514   T   T   T
  0.3374787778668397  0.0039434315951475  0.6559221435235900   T   T   T
  0.6655140758277827  0.0044109487598887  0.6571169514260000   T   T   T
  1.0000793528677163  0.3413489054125028  0.6559316450625360   T   T   T
  0.3337158969851152  0.3376098360475776  0.6566359898756035   T   T   T
  0.6647215280789648  0.3395987832490994  0.6565287918733793   T   T   T
  1.0005258247549866  0.6694120929658540  0.6571249662997531   T   T   T
  0.3357012394891190  0.6686220339697988  0.6565198218904391   T   T   T
  0.6671217276093017  0.6709933790795451  0.6567457537474288   T   T   T
  0.0637742496914000  0.0678574900424228  0.7656905995129960   T   T   T
  0.0325484787001799  0.0364224989837179  0.7302439302591229   T   T   T
 
  0.00000000E+00  0.00000000E+00  0.00000000E+00
  0.00000000E+00  0.00000000E+00  0.00000000E+00
  0.00000000E+00  0.00000000E+00  0.00000000E+00
  0.00000000E+00  0.00000000E+00  0.00000000E+00
  0.00000000E+00  0.00000000E+00  0.00000000E+00
  0.00000000E+00  0.00000000E+00  0.00000000E+00
  0.00000000E+00  0.00000000E+00  0.00000000E+00
  0.00000000E+00  0.00000000E+00  0.00000000E+00
  0.00000000E+00  0.00000000E+00  0.00000000E+00
  0.00000000E+00  0.00000000E+00  0.00000000E+00
  0.00000000E+00  0.00000000E+00  0.00000000E+00
  0.00000000E+00  0.00000000E+00  0.00000000E+00
  0.00000000E+00  0.00000000E+00  0.00000000E+00
  0.00000000E+00  0.00000000E+00  0.00000000E+00
  0.00000000E+00  0.00000000E+00  0.00000000E+00
  0.00000000E+00  0.00000000E+00  0.00000000E+00
  0.00000000E+00  0.00000000E+00  0.00000000E+00
  0.00000000E+00  0.00000000E+00  0.00000000E+00
  0.00000000E+00  0.00000000E+00  0.00000000E+00
  0.00000000E+00  0.00000000E+00  0.00000000E+00
  0.00000000E+00  0.00000000E+00  0.00000000E+00
  0.00000000E+00  0.00000000E+00  0.00000000E+00
  0.00000000E+00  0.00000000E+00  0.00000000E+00
  0.00000000E+00  0.00000000E+00  0.00000000E+00
  0.00000000E+00  0.00000000E+00  0.00000000E+00
  0.00000000E+00  0.00000000E+00  0.00000000E+00
  0.00000000E+00  0.00000000E+00  0.00000000E+00
  0.00000000E+00  0.00000000E+00  0.00000000E+00
  0.00000000E+00  0.00000000E+00  0.00000000E+00
  0.00000000E+00  0.00000000E+00  0.00000000E+00
  0.00000000E+00  0.00000000E+00  0.00000000E+00
  0.00000000E+00  0.00000000E+00  0.00000000E+00
  0.00000000E+00  0.00000000E+00  0.00000000E+00
  0.00000000E+00  0.00000000E+00  0.00000000E+00
  0.00000000E+00  0.00000000E+00  0.00000000E+00
  0.00000000E+00  0.00000000E+00  0.00000000E+00
  0.00000000E+00  0.00000000E+00  0.00000000E+00
  0.00000000E+00  0.00000000E+00  0.00000000E+00
  0.00000000E+00  0.00000000E+00  0.00000000E+00
  0.00000000E+00  0.00000000E+00  0.00000000E+00
  0.00000000E+00  0.00000000E+00  0.00000000E+00
  0.00000000E+00  0.00000000E+00  0.00000000E+00
  0.00000000E+00  0.00000000E+00  0.00000000E+00
  0.00000000E+00  0.00000000E+00  0.00000000E+00
  0.00000000E+00  0.00000000E+00  0.00000000E+00
  0.00000000E+00  0.00000000E+00  0.00000000E+00
  0.00000000E+00  0.00000000E+00  0.00000000E+00
