Si O  Al Cu
 1.0000000000000000
     9.4090594739860638   -0.0045258515369449    0.0083788510923028
    -0.6936810652864885    9.4184266925774782   -0.0247044409528463
    -0.6803865402607980   -0.7682113706482295    9.3245297120186983
 Si  O   Al  Cu
  11  24   1   1
Cartesian
  2.4485815637378532  7.0511875564375694  3.9312322613569237
  4.7002757327779729  7.2276373877332345  1.7890048730821952
  2.4867739471049419  4.7350507438712670  6.0663946750167366
  6.9816227514719014  5.0820534988705610  1.8626873906197337
  0.8653072247063434  2.9406951338982132  4.0961996048127389
  2.3443290597328548  4.6559045867353257  9.2460117152523384
  5.3848488485656310  0.9534502555784141  2.0156022477625677
  3.0891485065102149  0.7884832410263818  4.1608263021266341
  4.5883715467596105  2.5193246289168698  9.3148905013134371
  0.7674922074119092  5.2514326265834601  2.0317089930340702
  4.7084375999111288  2.5445785531265157  6.1363116649112373
  6.1317042958787287  6.4691276371820630  1.8454106780828079
  3.9872291566930591  4.0549120603003725  5.8397219761591233
  2.5296429336757855  6.1616041360613503  5.2962951815268990
  6.6406242308827688  4.3259860304034197  3.2670320068431886
  6.1147757857129665  2.6293623067500951  5.4223863317333976
  3.8994981915800646  6.8731149718813231  3.1844023693786716
  1.6919497264484860  1.5547028161421315  3.9401045969150874
  3.8712816990242476  4.0813014539327312  0.2250176062093382
  1.5678628554615508  5.3068945311896991  0.6175216246123062
  4.0140618730473445  1.0688217231219375  2.8789828743587949
  5.1713462860994222  1.8274419594347673  0.6571759866249339
  1.1438431862787952  3.8732645157461794  2.7834480853060679
  6.6183291931972539  1.5019473488677906  2.8376449586329837
  3.8218964861981850  6.6831366007177522  0.5473345060762586
  1.4273562080525521  3.7484196591555135  5.3996521621711118
  1.2732607254293900  6.4913305893864095  2.9673905931458555
  3.7645550441354869  1.3874149794580934  5.5148586157471913
  6.4913338229939512  4.1531996356592087  0.6246581069987575
  4.8092545462107852  2.3736796241638434  7.7257149073626170
  8.5781747214247410  5.3608355015495270  1.7726624552412662
  2.1907189454628235  8.5996908584179899  4.2956703056448173
  2.2129330198986858  4.8876357365643486  7.6441502710843672
  8.7413833761905888  2.6711197345340394  4.3000806535442715
  4.8970711924791521  8.8040646732192869  1.6125816866649285
  7.0776107951983160  2.6997314780818482  3.9758122047382871
  5.1275262864872317  4.7642219582805732  4.3762391445375659