Si O  Al Cu + COM points
   1.00000000000000
      9.4090594739860638  -0.0045258515369449   0.0083788510923028
     -0.6936810652864885   9.4184266925774782  -0.0247044409528463
     -0.6803865402607980  -0.7682113706482295   9.3245297120186983
   Si    O    Al    H
   11    24    1    55000
Direct
  0.3486036759409697  0.7833577768041287  0.4233633117088704
  0.5712938862193722  0.7834442507335293  0.1934223703086096
  0.3524205842192343  0.5560717135190828  0.6517410983632560
  0.7975255569248541  0.5563247880990910  0.2005193605854643
  0.1494589973736913  0.3481947646989765  0.4400810972637831
  0.3633740690010829  0.5754901939575190  0.9927775992413908
  0.5967027686083125  0.1191323133863290  0.2159407201764113
  0.3694510316799003  0.1202896497273734  0.4462104303375591
  0.5856714498613590  0.3492832975020148  0.9993653711064826
  0.1398569462383317  0.5755233987532548  0.2192877495680284
  0.5719253094401616  0.3241495267224243  0.6584275786945999
  0.7179415737298089  0.7034454282608443  0.1991278312080785
  0.5046411135681740  0.4819212796469053  0.6270985711669222
  0.3617043342376370  0.7008345501582502  0.5695277300353281
  0.7671490764808145  0.4883066358578378  0.3509740032465059
  0.7160540052848603  0.3269657927418417  0.5817413099105349
  0.4951302959387905  0.7579723669234173  0.3430713535951299
  0.2251212068241784  0.1996705468822713  0.4228793527247175
  0.4453541740039116  0.4355753471702684  0.0248856191693630
  0.2134719607991878  0.5690702809667100  0.0675413728568842
  0.4591790966441794  0.1388823979708645  0.3087090268341465
  0.5694600490719348  0.2000520392616581  0.0704965032836889
  0.1753521162593777  0.4357565727834157  0.2995050736937105
  0.7390049191489356  0.1846316904101844  0.3041455447878819
  0.4632366551473418  0.7147118072013375  0.0601756536888243
  0.2264828761461036  0.4454088939487527  0.5800569294798672
  0.2112020507502215  0.7154133722090747  0.3199405162683516
  0.4573082201773250  0.1957773915305939  0.5915433420911758
  0.7277269565837462  0.4468223358890949  0.0675207336618340
  0.5946516099520636  0.3199157315873378  0.8288499246680741
  0.9686340155393045  0.5852128712130680  0.1907875063758802
  0.3364156035628290  0.9509889963707677  0.4629021853339803
  0.3377707537783990  0.5860740653747549  0.8210385948483121
  0.9861003665396975  0.3216910383984573  0.4611241097909778
  0.6031006191426187  0.9493267426329426  0.1749129482358305
  0.8067801384075611  0.3218194047817263  0.4265097335097942
  0.5835012491043019  0.5835827212934215  0.4404220406373339
  0.5834086191028437  0.5836018613015845  0.4405682906412995
  0.5833175491011430  0.5836183813097541  0.4407175206452585
  0.5832280390991946  0.5836322413179333  0.4408698406492122
  0.5831401290969919  0.5836433813261231  0.4410253406531613
  0.5830538690945296  0.5836517513343229  0.4411840606571055
  0.5829693490918056  0.5836573213425278  0.4413459506610433
  0.5828866790888168  0.5836600513507316  0.4415109306649718
  0.5828060090855627  0.5836598913589233  0.4416788306688861
  0.5827274890820447  0.5836568413670916  0.4418494406727819
  0.5826512690782668  0.5836508813752225  0.4420224906766523
  0.5825775390742328  0.5836420213833010  0.4421976806804916
  0.5825064490699516  0.5836303013913110  0.4423746406842924
  0.5824381690654309  0.5836157413992351  0.4425530006880471
  0.5823728590606821  0.5835984114070563  0.4427323406917483
  0.5823106590557170  0.5835783914147580  0.4429122506953896
  0.5822516790505494  0.5835557614223240  0.4430923106989632
  0.5821960190451941  0.5835306314297395  0.4432721007024631
  0.5821437790396647  0.5835031014369891  0.4434512107058829
  0.5820949890339777  0.5834733014440625  0.4436292807092179
  0.5820496790281485  0.5834413414509481  0.4438059507124626
  0.5820078690221914  0.5834073714576379  0.4439809107156151
  0.5819695390161204  0.5833715114641258  0.4441539007186726
  0.5819346290099493  0.5833338714704074  0.4443247007216323
  0.5819030990036894  0.5832945914764820  0.4444931507244955
  0.5818748589973507  0.5832537614823493  0.4446591407272614
  0.5818498289909412  0.5832114914880124  0.4448226207299324
  0.5818278989844677  0.5831678714934758  0.4449835807325109
  0.5818089589779343  0.5831229614987459  0.4451420807349997
  0.5817929089713418  0.5830768115038300  0.4452982207374026
  0.5817796289646906  0.5830294815087388  0.4454521607397257
  0.5817690089579776  0.5829809615134814  0.4456040907419724
  0.5817609489511981  0.5829312815180704  0.4457542407441499
  0.5817553489443456  0.5828804115225162  0.4459028707462631
  0.5817521089374126  0.5828283315268320  0.4460502607483182
  0.5817511689303878  0.5827749915310295  0.4461967207503215
  0.5817524489232608  0.5827203415351215  0.4463425707522793
  0.5817558889160194  0.5826643115391206  0.4464881507541978
  0.5817614589086498  0.5826068315430375  0.4466337707560829
  0.5817691089011395  0.5825478215468839  0.4467797607579403
  0.5817788388934735  0.5824871815506695  0.4469264407597751
  0.5817906088856403  0.5824248415544041  0.4470740907615919
  0.5818044388776256  0.5823607315580971  0.4472230007633971
  0.5818203288694181  0.5822947615617545  0.4473734007651932
  0.5818382788610084  0.5822268815653838  0.4475255007669844
  0.5818583088523887  0.5821570615689886  0.4476794307687739
  0.5818804288435540  0.5820852715725723  0.4478353007705636
  0.5819046388345017  0.5820115215761376  0.4479931607723556
  0.5819309588252340  0.5819358615796838  0.4481529607741510
  0.5819593588157563  0.5818583415832104  0.4483146307759496
  0.5819898488060770  0.5817790815867137  0.4484779907777515
  0.5820223887962093  0.5816982015901899  0.4486428207795551
  0.5820569387861705  0.5816158815936338  0.4488088307813593
  0.5820934587759790  0.5815323015970389  0.4489757007831618
  0.5821318787656568  0.5814476816003993  0.4491430607849607
  0.5821721287552273  0.5813622316037070  0.4493105207867527
  0.5822141287447149  0.5812762016069559  0.4494776907885359
  0.5822578187341416  0.5811897916101386  0.4496441907903076
  0.5823031187235292  0.5811032316132506  0.4498096907920667
  0.5823499587128981  0.5810167016162853  0.4499738507938102
  0.5823982787022635  0.5809303916192406  0.4501364407955392
  0.5824480286916397  0.5808444216221126  0.4502972307972513
  0.5824991986810348  0.5807589116249000  0.4504560907989479
  0.5825517586704551  0.5806739416276023  0.4506129308006296
  0.5826057086599017  0.5805895616302207  0.4507677308022981
  0.5826610886493735  0.5805058016327554  0.4509204908039557
  0.5827179186388659  0.5804226516352091  0.4510712808056041
  0.5827762686283703  0.5803400916375848  0.4512202208072472
  0.5828361986178772  0.5802580816398857  0.4513674408088884
  0.5828977986073747  0.5801765516421143  0.4515130908105303
  0.5829611585968499  0.5800954616442751  0.4516573508121779
  0.5830263885862877  0.5800147116463712  0.4518004108138343
  0.5830935785756752  0.5799342416484062  0.4519424508155037
  0.5831628585649959  0.5798539716503842  0.4520836708171904
  0.5832343285542357  0.5797738216523077  0.4522242508188980
  0.5833081085433817  0.5796937416541801  0.4523643408206305
  0.5833842985324206  0.5796136416560029  0.4525041008223904
  0.5834629785213434  0.5795335016577791  0.4526436408241813
  0.5835442485101394  0.5794532716595097  0.4527830708260060
  0.5836281484988042  0.5793729416611967  0.4529224508278664
  0.5837147284873343  0.5792925016628389  0.4530617908297631
  0.5838039884757310  0.5792119816644374  0.4532010808316974
  0.5838958984639975  0.5791314116659920  0.4533402808336687
  0.5839904084521433  0.5790508616675004  0.4534792608356758
  0.5840874284401787  0.5789704016689615  0.4536179008377166
  0.5841868184281210  0.5788901316703725  0.4537560008397876
  0.5842883984159901  0.5788101916717325  0.4538933508418859
  0.5843919684038089  0.5787306816730368  0.4540296808440047
  0.5844972883916042  0.5786517716742835  0.4541647208461398
  0.5846040983794020  0.5785735816754692  0.4542981908482843
  0.5847121383672305  0.5784962516765904  0.4544297908504309
  0.5848211283551168  0.5784199316776457  0.4545592708525749
  0.5849308083430863  0.5783447116786318  0.4546863708547081
  0.5850409283311621  0.5782706816795462  0.4548108808568244
  0.5851512783193618  0.5781979016803884  0.4549326508589185
  0.5852617083076987  0.5781264016811565  0.4550515608609857
  0.5853720782961819  0.5780561716818499  0.4551675608630220
  0.5854823282848134  0.5779871716824685  0.4552806608650244
  0.5855924582735901  0.5779193216830116  0.4553909108669911
  0.5857024982625038  0.5778525216834802  0.4554984308689213
  0.5858125382515427  0.5777866316838730  0.4556033508708139
  0.5859227282406880  0.5777215116841916  0.4557058808726712
  0.5860332482299198  0.5776569816844355  0.4558062208744939
  0.5861443282192134  0.5775928616846044  0.4559046108762843
  0.5862562082085443  0.5775289416846977  0.4560012908780440
  0.5863691681978838  0.5774650316847149  0.4560965208797763
  0.5864835081872041  0.5774009316846545  0.4561905408814843
  0.5865995281764764  0.5773364216845145  0.4562836008831697
  0.5867175381656728  0.5772713216842935  0.4563759308848364
  0.5868378281547676  0.5772054516839894  0.4564677308864865
  0.5869607081437345  0.5771386316835988  0.4565591908881224
  0.5870864281325521  0.5770707116831194  0.4566504708897462
  0.5872152481212006  0.5770015616825472  0.4567416808913590
  0.5873473581096660  0.5769310816818793  0.4568329008929615
  0.5874829180979364  0.5768591916811130  0.4569241908945547
  0.5876220380860059  0.5767858516802448  0.4570155508961382
  0.5877647780738734  0.5767110616792722  0.4571069308977113
  0.5879111280615429  0.5766348316781926  0.4571982608992724
  0.5880610280490225  0.5765572216770047  0.4572894309008200
  0.5882143780363253  0.5764783316757073  0.4573803009023526
  0.5883710180234665  0.5763982416742998  0.4574707209038670
  0.5885307880104641  0.5763170916727812  0.4575605009053614
  0.5886934979973367  0.5762350116711528  0.4576494809068338
  0.5888589379841037  0.5761521116694142  0.4577374909082810
  0.5890269679707796  0.5760685316675669  0.4578243909097027
  0.5891974279573798  0.5759843616656110  0.4579100509110969
  0.5893702279439140  0.5758996916635466  0.4579943709124633
  0.5895453279303877  0.5758145716613740  0.4580772909138015
  0.5897227279168026  0.5757290116590915  0.4581587709151110
  0.5899024879031566  0.5756430316566992  0.4582388009163932
  0.5900847278894426  0.5755566016541941  0.4583173909176493
  0.5902696178756489  0.5754696516515734  0.4583945909188797
  0.5904573478617640  0.5753821316488342  0.4584704409200867
  0.5906481378477723  0.5752939516459725  0.4585450009212713
  0.5908422178336589  0.5752050216429849  0.4586183409224349
  0.5910398078194091  0.5751152716398674  0.4586905109235796
  0.5912411178050084  0.5750246016366160  0.4587615709247056
  0.5914462977904478  0.5749329716332283  0.4588315509258145
  0.5916554277757214  0.5748403416297025  0.4589004709269062
  0.5918685377608286  0.5747467116260379  0.4589683209279809
  0.5920855177457756  0.5746521216222367  0.4590350909290384
  0.5923062077305737  0.5745566316183013  0.4591007209300771
  0.5925303077152437  0.5744603716142372  0.4591651309310962
  0.5927573976998115  0.5743634916100531  0.4592282409320931
  0.5929869876843089  0.5742661816057585  0.4592899609330666
  0.5932185276687707  0.5741686516013647  0.4593501709340138
  0.5934513776532363  0.5740711215968847  0.4594087809349323
  0.5936849376377435  0.5739738315923322  0.4594656909358208
  0.5939185876223284  0.5738769715877203  0.4595208409366766
  0.5941517976070223  0.5737807315830616  0.4595741809374985
  0.5943841175918494  0.5736852415783675  0.4596257109382854
  0.5946151975768291  0.5735906115736470  0.4596754309390372
  0.5948448275619687  0.5734968515689064  0.4597234109397530
  0.5950729575472671  0.5734039615641497  0.4597697309404346
  0.5952996475327162  0.5733118615593779  0.4598145009410824
  0.5955251075182968  0.5732204215545891  0.4598578609416981
  0.5957496575039847  0.5731294715497784  0.4598999609422835
  0.5959737574897453  0.5730387815449387  0.4599409809428404
  0.5961979274755419  0.5729481015400606  0.4599811009433709
  0.5964228074613294  0.5728571415351325  0.4600205209438779
  0.5966490874470611  0.5727655815301410  0.4600594309443629
  0.5968775074326861  0.5726731015250724  0.4600980409448293
  0.5971088574181520  0.5725793515199104  0.4601365409452788
  0.5973439274034058  0.5724839815146390  0.4601751309457139
  0.5975835173883938  0.5723866315092422  0.4602140109461363
  0.5978283973730655  0.5722869715037036  0.4602533509465482
  0.5980793073573711  0.5721846914980095  0.4602933509469527
  0.5983368673412697  0.5720794914921457  0.4603341409473495
  0.5986015973247260  0.5719711514861027  0.4603758709477415
  0.5988738673077143  0.5718595114798739  0.4604186509481301
  0.5991538272902223  0.5717444714734571  0.4604625609485156
  0.5994413972722529  0.5716260714668557  0.4605076309488995
  0.5997362372538253  0.5715044414600803  0.4605538709492827
  0.6000377072349767  0.5713798214531460  0.4606012209496647
  0.6003448872157627  0.5712526014460768  0.4606495909500465
  0.6006566171962536  0.5711232614389012  0.4606988409504278
  0.6009714871765360  0.5709923914316539  0.4607488009508088
  0.6012879971567016  0.5708606214243718  0.4607992809511895
  0.6016045671368474  0.5707286214170934  0.4608500709515699
  0.6019196671170691  0.5705970514098558  0.4609009509519500
  0.6022318870974529  0.5704665114026937  0.4609517409523301
  0.6025400170780736  0.5703375213956369  0.4610022809527105
  0.6028431070589898  0.5702105013887092  0.4610524409530919
  0.6031404270402471  0.5700857813819289  0.4611021209534751
  0.6034315670218698  0.5699635413753075  0.4611512909538615
  0.6037163470038686  0.5698438713688500  0.4611999409542516
  0.6039948069862400  0.5697267713625574  0.4612481009546475
  0.6042671769689683  0.5696121413564257  0.4612958409550499
  0.6045338469520282  0.5694998413504478  0.4613432509554615
  0.6047952969353869  0.5693896613446143  0.4613904509558836
  0.6050521069190072  0.5692813513389128  0.4614375709563176
  0.6053048869028482  0.5691746713333320  0.4614847609567668
  0.6055542768868675  0.5690693313278590  0.4615321809572323
  0.6058008968710222  0.5689650613224818  0.4615800009577166
  0.6060453468552730  0.5688615913171884  0.4616283709582213
  0.6062882168395779  0.5687586613119685  0.4616774809587493
  0.6065300168239012  0.5686560313068126  0.4617274909593023
  0.6067711968082099  0.5685534813017141  0.4617785809598828
  0.6070121367924756  0.5684508212966664  0.4618309009604923
  0.6072531567766735  0.5683478712916648  0.4618846009611323
  0.6074944667607839  0.5682445112867088  0.4619398509618056
  0.6077361967447942  0.5681406312817973  0.4619967609625123
  0.6079783867286960  0.5680361612769320  0.4620554509632538
  0.6082209967124856  0.5679310712721182  0.4621160509640319
  0.6084638866961666  0.5678253412673596  0.4621786309648457
  0.6087068666797456  0.5677190212626646  0.4622432709656967
  0.6089496666632336  0.5676121312580402  0.4623100409665841
  0.6091919566466462  0.5675047512534965  0.4623789809675075
  0.6094333966300005  0.5673969612490422  0.4624501209684660
  0.6096736166133154  0.5672888512446868  0.4625234809694588
  0.6099122265966105  0.5671805112404404  0.4625990909704849
  0.6101488665799044  0.5670720312363119  0.4626769509715426
  0.6103831865632153  0.5669634812323096  0.4627570909726308
  0.6106148965465585  0.5668549412284404  0.4628395009737481
  0.6108437065299471  0.5667464412247121  0.4629242309748930
  0.6110694165133916  0.5666380212211287  0.4630112809760643
  0.6112918464968993  0.5665296912176953  0.4631007009772609
  0.6115108764804739  0.5664214412144148  0.4631925309784817
  0.6117264464641156  0.5663132512112906  0.4632868409797271
  0.6119385064478228  0.5662050612083235  0.4633836909809952
  0.6121470764315915  0.5660968212055144  0.4634831509822863
  0.6123521964154141  0.5659884512028639  0.4635853209836001
  0.6125539363992815  0.5658798812003727  0.4636903009849377
  0.6127523963831836  0.5657710011980391  0.4637981809862982
  0.6129476663671091  0.5656617311958646  0.4639090909876832
  0.6131398863510443  0.5655519511938473  0.4640231509890932
  0.6133291863349770  0.5654415711919863  0.4641404609905290
  0.6135157063188921  0.5653304611902815  0.4642611709919912
  0.6136995863027764  0.5652185411887322  0.4643853909934818
  0.6138809762866150  0.5651056811873374  0.4645132609950015
  0.6140600262703928  0.5649917911860970  0.4646449109965521
  0.6142368962540952  0.5648767511850106  0.4647804809981352
  0.6144117362377068  0.5647604611840773  0.4649201009997523
  0.6145846962212127  0.5646428211832974  0.4650639110014056
  0.6147559562045963  0.5645237211826706  0.4652120610030971
  0.6149256661878431  0.5644030611821964  0.4653646810048286
  0.6150939961709350  0.5642807211818750  0.4655219410066026
  0.6152611261538556  0.5641565911817064  0.4656839910084212
  0.6154272361365867  0.5640305611816907  0.4658510010102874
  0.6155925061191098  0.5639025011818282  0.4660231510122037
  0.6157571361014064  0.5637723011821185  0.4662006010141727
  0.6159213060834572  0.5636398311825631  0.4663835510161976
  0.6160852060652429  0.5635049611831618  0.4665721810182806
  0.6162490360467446  0.5633675811839148  0.4667666610204252
  0.6164129560279442  0.5632275511848223  0.4669671810226332
  0.6165771460088262  0.5630847811858843  0.4671738710249072
  0.6167417359893766  0.5629391811871011  0.4673868610272490
  0.6169068559695853  0.5627907011884720  0.4676062310296608
  0.6170725559494481  0.5626393011899954  0.4678319910321418
  0.6172388759289671  0.5624850311916701  0.4680640810346933
  0.6174057759081516  0.5623279611934923  0.4683023410373128
  0.6175731558870212  0.5621682611954584  0.4685464910399982
  0.6177408258656066  0.5620061711975622  0.4687961210427451
  0.6179085258439487  0.5618420011997962  0.4690506810455470
  0.6180759058221017  0.5616761912021514  0.4693094610483969
  0.6182425358001312  0.5615092312046163  0.4695716010512848
  0.6184079357781106  0.5613417012071786  0.4698361410542004
  0.6185715557561239  0.5611742412098236  0.4701019810571313
  0.6187328357342584  0.5610075212125356  0.4703679610600642
  0.6188912357126000  0.5608422012152980  0.4706329310629860
  0.6190462156912330  0.5606789412180960  0.4708957710658846
  0.6191973256702340  0.5605183012209121  0.4711554210687467
  0.6193441856496666  0.5603607912237337  0.4714110010715628
  0.6194865256295813  0.5602067912265482  0.4716617810743239
  0.6196241956100127  0.5600565812293448  0.4719072210770242
  0.6197571355909796  0.5599102812321158  0.4721470010796587
  0.6198854055724844  0.5597679312348568  0.4723810010822261
  0.6200091555545161  0.5596294312375640  0.4726092710847261
  0.6201286255370504  0.5594945912402364  0.4728320410871603
  0.6202441155200527  0.5593631612428762  0.4730496810895333
  0.6203559655034794  0.5592347912454868  0.4732626910918493
  0.6204645854872811  0.5591091012480710  0.4734716210941142
  0.6205703654714045  0.5589856712506353  0.4736771210963342
  0.6206737454557917  0.5588640612531861  0.4738798810985172
  0.6207751454403851  0.5587438212557303  0.4740806011006699
  0.6208749854251262  0.5586244912582752  0.4742800011028001
  0.6209736954099568  0.5585056112608271  0.4744787911049146
  0.6210716653948218  0.5583867612633938  0.4746776511070208
  0.6211692553796692  0.5582675212659824  0.4748772411091252
  0.6212668153644508  0.5581475212685985  0.4750781411112336
  0.6213646653491233  0.5580264212712476  0.4752808911133520
  0.6214630353336528  0.5579039512739342  0.4754859111154842
  0.6215621553180100  0.5577798912766613  0.4756935411176342
  0.6216621653021788  0.5576541012794290  0.4759039611198030
  0.6217631452861518  0.5575265412822370  0.4761172211219915
  0.6218650852699343  0.5573972512850830  0.4763332311241989
  0.6219679352535433  0.5572663812879610  0.4765517011264221
  0.6220715352370084  0.5571341712908650  0.4767722111286573
  0.6221756852203691  0.5570009512937849  0.4769941811308987
  0.6222801052036752  0.5568671312967108  0.4772169111331395
  0.6223844951869808  0.5567331612996319  0.4774396411353728
  0.6224885351703441  0.5565995213025356  0.4776615511375906
  0.6225918951538236  0.5564666913054103  0.4778818211397851
  0.6226942651374731  0.5563351313082459  0.4780997111419500
  0.6227953951213393  0.5562052413110328  0.4783145511440797
  0.6228950551054604  0.5560773313137641  0.4785258311461691
  0.6229931150898643  0.5559516513164335  0.4787331311482151
  0.6230894750745684  0.5558283713190389  0.4789362211502171
  0.6231841150595790  0.5557075513215781  0.4791349911521740
  0.6232770650448932  0.5555891913240526  0.4793294811540875
  0.6233684050305002  0.5554732213264638  0.4795198211559599
  0.6234582550163805  0.5553594913288155  0.4797062711577937
  0.6235467850025103  0.5552478413311125  0.4798891411595940
  0.6236341849888597  0.5551380613333607  0.4800688311613661
  0.6237206449753985  0.5550298913355654  0.4802457411631132
  0.6238063749620927  0.5549231013377339  0.4804203411648423
  0.6238916049489078  0.5548174313398725  0.4805930711665584
  0.6239765449358092  0.5547126213419886  0.4807644111682676
  0.6240613949227648  0.5546084213440885  0.4809348011699747
  0.6241463649097418  0.5545046113461789  0.4811046711716859
  0.6242316348967114  0.5544009813482665  0.4812744211734070
  0.6243173548836476  0.5542973213503568  0.4814444111751411
  0.6244036748705274  0.5541934913524551  0.4816149511768939
  0.6244906948573322  0.5540893613545667  0.4817863111786690
  0.6245784948440484  0.5539848313566949  0.4819586911804694
  0.6246671348306654  0.5538798513588437  0.4821322411822982
  0.6247566048171812  0.5537744113610149  0.4823070211841565
  0.6248468848035972  0.5536685513632108  0.4824830311860462
  0.6249379047899207  0.5535623213654309  0.4826602011879660
  0.6250295747761637  0.5534558313676748  0.4828383911899157
  0.6251217547623443  0.5533492313699412  0.4830173911918935
  0.6252142947484826  0.5532426713722277  0.4831969611938964
  0.6253070247346031  0.5531363513745311  0.4833767911959220
  0.6253997547207313  0.5530304513768479  0.4835565711979658
  0.6254922847068944  0.5529251613791734  0.4837359612000233
  0.6255844546931175  0.5528206813815035  0.4839146312020909
  0.6256760646794270  0.5527171713838338  0.4840922612041635
  0.6257669946658417  0.5526147813861603  0.4842685912062379
  0.6258570946523827  0.5525136313884782  0.4844433512083089
  0.6259462746390636  0.5524137913907837  0.4846163512103727
  0.6260344646258951  0.5523153313930744  0.4847874512124271
  0.6261216146128846  0.5522182713953471  0.4849565412144689
  0.6262077346000336  0.5521225913975990  0.4851235712164956
  0.6262928245873421  0.5520282613998282  0.4852885312185056
  0.6263769345748065  0.5519352214020327  0.4854514312204972
  0.6264601045624202  0.5518433914042119  0.4856123512224695
  0.6265424245501741  0.5517526714063642  0.4857713612244216
  0.6266239845380585  0.5516629714084889  0.4859285612263538
  0.6267048845260607  0.5515741514105846  0.4860840812282649
  0.6267852245141698  0.5514861114126512  0.4862380212301550
  0.6268651245023729  0.5513987214146870  0.4863905112320239
  0.6269446944906572  0.5513118614166913  0.4865416712338713
  0.6270240644790104  0.5512254214186630  0.4866916112356976
  0.6271033244674219  0.5511392914206005  0.4868404312375019
  0.6271826144558793  0.5510533714225020  0.4869882212392849
  0.6272620344443729  0.5509675514243656  0.4871350612410451
  0.6273416844328933  0.5508817514261898  0.4872810212427826
  0.6274216944214309  0.5507958814279714  0.4874261512444968
  0.6275021444099790  0.5507098714297084  0.4875704912461870
  0.6275831543985294  0.5506236414313977  0.4877140712478520
  0.6276648143870752  0.5505371414330370  0.4878569212494920
  0.6277472343756086  0.5504502914346231  0.4879990712511057
  0.6278305043641242  0.5503630314361527  0.4881405212526920
  0.6279147543526143  0.5502753014376225  0.4882812912542506
  0.6280000643410724  0.5501870414390304  0.4884214112557807
  0.6280865643294913  0.5500981914403723  0.4885608812572818
  0.6281743643178628  0.5500086814416452  0.4886997312587531
  0.6282635743061807  0.5499184614428470  0.4888379812601947
  0.6283543142944372  0.5498274514439722  0.4889756312616047
  0.6284467042826254  0.5497356114450193  0.4891127012629837
  0.6285408442707398  0.5496428914459839  0.4892491812643308
  0.6286368142587776  0.5495492514468616  0.4893850212656435
  0.6287347042467361  0.5494546814476500  0.4895201912669221
  0.6288345442346187  0.5493592014483439  0.4896545812681646
  0.6289363542224308  0.5492628514489389  0.4897880512693688
  0.6290401042101832  0.5491657214494315  0.4899204212705328
  0.6291456941978928  0.5490679514498179  0.4900514512716544
  0.6292530041855813  0.5489697014500932  0.4901808412727297
  0.6293618241732778  0.5488712214502544  0.4903082312737563
  0.6294719041610151  0.5487727814502993  0.4904332412747310
  0.6295829241488329  0.5486747014502252  0.4905554212756500
  0.6296945541367712  0.5485773314500317  0.4906743412765112
  0.6298064141248738  0.5484810214497178  0.4907895412773108
  0.6299181041131838  0.5483861314492851  0.4909006012780465
  0.6300292541017413  0.5482930114487350  0.4910071312787168
  0.6301395040905814  0.5482019614480709  0.4911088212793206
  0.6302485740797338  0.5481132214472944  0.4912054012798564
  0.6303562040692209  0.5480270114464105  0.4912967112803255
  0.6304622340590574  0.5479434614454216  0.4913826412807282
  0.6305665540492494  0.5478626214443312  0.4914631912810648
  0.6306691540397956  0.5477845014431418  0.4915384112813375
  0.6307700940306880  0.5477090414418544  0.4916083912815470
  0.6308694840219131  0.5476361514404705  0.4916732912816960
  0.6309675140134512  0.5475656614389888  0.4917332912817847
  0.6310644240052796  0.5474973914374072  0.4917885812818145
  0.6311605039973721  0.5474311414357229  0.4918393712817873
  0.6312560539897014  0.5473666714339315  0.4918858612817023
  0.6313514539822379  0.5473037414320258  0.4919282312815601
  0.6314470839749516  0.5472420914299981  0.4919666512813595
  0.6315433539678118  0.5471814714278399  0.4920012712811002
  0.6316406839607887  0.5471216014255394  0.4920322112807791
  0.6317395239538540  0.5470622514230848  0.4920595312803943
  0.6318403139469793  0.5470031514204621  0.4920833012799424
  0.6319435139401375  0.5469440614176568  0.4921035312794196
  0.6320495739333037  0.5468847514146531  0.4921202012788216
  0.6321589139264568  0.5468250114114350  0.4921332612781436
  0.6322719439195776  0.5467646414079850  0.4921426112773796
  0.6323890239126500  0.5467035014042892  0.4921481612765259
  0.6325104639056632  0.5466414514003319  0.4921497612755761
  0.6326364738986118  0.5465784213961011  0.4921472712745260
  0.6327671838914959  0.5465143713915874  0.4921405312733707
  0.6329026138843203  0.5464493413867858  0.4921294112721085
  0.6330426538770983  0.5463834013816948  0.4921137612707362
  0.6331870438698478  0.5463166913763200  0.4920935112692543
  0.6333354338625921  0.5462494213706715  0.4920685912676648
  0.6334873338553589  0.5461818013647632  0.4920389912659694
  0.6336421938481781  0.5461141113586154  0.4920047512641741
  0.6337993938410796  0.5460466313522514  0.4919659712622853
  0.6339583038340948  0.5459796313456944  0.4919227612603089
  0.6341183238272486  0.5459133713389708  0.4918753012582535
  0.6342789238205637  0.5458480713321021  0.4918237512561259
  0.6344396438140586  0.5457839213251100  0.4917682812539331
  0.6346001238077444  0.5457210413180114  0.4917090812516809
  0.6347601338016285  0.5456595413108195  0.4916462812493747
  0.6349195537957123  0.5455994413035412  0.4915800012470175
  0.6350783737899929  0.5455407512961806  0.4915103112446116
  0.6352366637844642  0.5454834112887361  0.4914372612421571
  0.6353946037791166  0.5454273812812036  0.4913608412396542
  0.6355524337739390  0.5453725412735728  0.4912810012371000
  0.6357104537689187  0.5453187912658327  0.4911976612344918
  0.6358690137640413  0.5452660012579682  0.4911107012318254
  0.6360285037592914  0.5452140412499633  0.4910199812290964
  0.6361893237546559  0.5451627812417991  0.4909253112262993
  0.6363518937501204  0.5451120812334562  0.4908264912234278
  0.6365166537456709  0.5450618012249138  0.4907232912204754
  0.6366840337412940  0.5450118112161508  0.4906154812174354
  0.6368544537369781  0.5449619912071466  0.4905028112143012
  0.6370283137327122  0.5449122211978805  0.4903850312110658
  0.6372060037284860  0.5448624011883333  0.4902619012077232
  0.6373878737242904  0.5448124111784856  0.4901331912042661
  0.6375742237201183  0.5447621811683218  0.4899986912006896
  0.6377653137159637  0.5447116511578284  0.4898582211969892
  0.6379613437118218  0.5446607511469943  0.4897116411931607
  0.6381624337076898  0.5446094411358129  0.4895588711892014
  0.6383686137035669  0.5445577211242821  0.4893998811851111
  0.6385798536994539  0.5445055811124039  0.4892347011808896
  0.6387960036953526  0.5444530611001868  0.4890634611765404
  0.6390168136912675  0.5444001810876437  0.4888863611720669
  0.6392419636872037  0.5443470310747940  0.4887036711674762
  0.6394710036831686  0.5442936710616620  0.4885157711627762
  0.6397034136791703  0.5442402210482784  0.4883231011579777
  0.6399386136752172  0.5441867810346763  0.4881261711530920
  0.6401759336713203  0.5441334910208945  0.4879255511481328
  0.6404147136674873  0.5440804510069718  0.4877218511431132
  0.6406542336637292  0.5440278109929499  0.4875156911380480
  0.6408938036600552  0.5439756809788695  0.4873077011329510
  0.6411327736564721  0.5439241809647700  0.4870985011278366
  0.6413705136529885  0.5438734209506885  0.4868886611227179
  0.6416064736496091  0.5438234809366584  0.4866787211176065
  0.6418401336463412  0.5437744609227115  0.4864691611125136